%%MatrixMarket matrix coordinate integer general
%
39 5311 117
1 234 1
1 235 1
1 236 1
2 234 1
2 235 1
2 244 1
3 308 1
3 309 1
3 313 1
4 259 1
4 308 1
4 309 1
5 234 1
5 244 1
5 250 1
6 259 1
6 309 1
6 313 1
7 236 1
7 246 1
7 768 1
8 235 1
8 246 1
8 768 1
9 234 1
9 235 1
9 245 1
10 234 1
10 236 1
10 768 1
11 234 1
11 244 1
11 246 1
12 236 1
12 244 1
12 246 1
13 235 1
13 236 1
13 768 1
14 234 1
14 235 1
14 768 1
15 234 1
15 236 1
15 245 1
16 234 1
16 244 1
16 245 1
17 235 1
17 250 1
17 768 1
18 234 1
18 246 1
18 768 1
19 234 1
19 250 1
19 768 1
20 234 1
20 235 1
20 246 1
21 246 1
21 250 1
21 768 1
22 234 1
22 236 1
22 246 1
23 235 1
23 246 1
23 250 1
24 234 1
24 236 1
24 244 1
25 245 1
25 246 1
25 768 1
26 234 1
26 245 1
26 246 1
27 234 1
27 244 1
27 768 1
28 234 1
28 245 1
28 768 1
29 234 1
29 235 1
29 250 1
30 235 1
30 244 1
30 246 1
31 235 1
31 244 1
31 250 1
32 234 1
32 236 1
32 250 1
33 236 1
33 250 1
33 768 1
34 234 1
34 245 1
34 250 1
35 308 1
35 309 1
35 776 1
36 244 1
36 245 1
36 246 1
37 259 1
37 308 1
37 313 1
38 235 1
38 236 1
38 250 1
39 235 1
39 244 1
39 245 1
