%%MatrixMarket matrix coordinate integer general
%
39 13 117
1 1 1
1 2 1
1 3 1
2 1 1
2 2 1
2 4 1
3 9 1
3 10 1
3 11 1
4 8 1
4 9 1
4 10 1
5 1 1
5 4 1
5 7 1
6 8 1
6 10 1
6 11 1
7 3 1
7 6 1
7 12 1
8 2 1
8 6 1
8 12 1
9 1 1
9 2 1
9 5 1
10 1 1
10 3 1
10 12 1
11 1 1
11 4 1
11 6 1
12 3 1
12 4 1
12 6 1
13 2 1
13 3 1
13 12 1
14 1 1
14 2 1
14 12 1
15 1 1
15 3 1
15 5 1
16 1 1
16 4 1
16 5 1
17 2 1
17 7 1
17 12 1
18 1 1
18 6 1
18 12 1
19 1 1
19 7 1
19 12 1
20 1 1
20 2 1
20 6 1
21 6 1
21 7 1
21 12 1
22 1 1
22 3 1
22 6 1
23 2 1
23 6 1
23 7 1
24 1 1
24 3 1
24 4 1
25 5 1
25 6 1
25 12 1
26 1 1
26 5 1
26 6 1
27 1 1
27 4 1
27 12 1
28 1 1
28 5 1
28 12 1
29 1 1
29 2 1
29 7 1
30 2 1
30 4 1
30 6 1
31 2 1
31 4 1
31 7 1
32 1 1
32 3 1
32 7 1
33 3 1
33 7 1
33 12 1
34 1 1
34 5 1
34 7 1
35 9 1
35 10 1
35 13 1
36 4 1
36 5 1
36 6 1
37 8 1
37 9 1
37 11 1
38 2 1
38 3 1
38 7 1
39 2 1
39 4 1
39 5 1
