%%MatrixMarket matrix coordinate integer general
%
6589 5311 19767
1 117 1
1 118 1
1 119 1
2 234 1
2 235 1
2 236 1
3 225 1
3 232 1
3 240 1
4 225 1
4 232 1
4 240 1
5 234 1
5 235 1
5 244 1
6 234 1
6 235 1
6 244 1
7 225 1
7 232 1
7 240 1
8 265 1
8 266 1
8 267 1
9 307 1
9 308 1
9 309 1
10 259 1
10 309 1
10 311 1
11 307 1
11 308 1
11 309 1
12 308 1
12 309 1
12 313 1
13 308 1
13 309 1
13 313 1
14 259 1
14 308 1
14 309 1
15 259 1
15 308 1
15 314 1
16 259 1
16 309 1
16 310 1
17 308 1
17 309 1
17 313 1
18 259 1
18 309 1
18 311 1
19 308 1
19 309 1
19 313 1
20 259 1
20 309 1
20 311 1
21 265 1
21 266 1
21 267 1
22 265 1
22 266 1
22 267 1
23 265 1
23 266 1
23 267 1
24 265 1
24 266 1
24 267 1
25 265 1
25 266 1
25 267 1
26 232 1
26 483 1
26 484 1
27 233 1
27 268 1
27 489 1
28 259 1
28 261 1
28 262 1
29 259 1
29 261 1
29 262 1
30 259 1
30 261 1
30 262 1
31 259 1
31 261 1
31 262 1
32 259 1
32 261 1
32 262 1
33 259 1
33 261 1
33 506 1
34 259 1
34 308 1
34 309 1
35 456 1
35 502 1
35 512 1
36 456 1
36 502 1
36 512 1
37 456 1
37 502 1
37 512 1
38 456 1
38 502 1
38 512 1
39 259 1
39 261 1
39 262 1
40 259 1
40 308 1
40 309 1
41 259 1
41 309 1
41 470 1
42 259 1
42 308 1
42 309 1
43 259 1
43 309 1
43 311 1
44 259 1
44 261 1
44 262 1
45 259 1
45 261 1
45 262 1
46 259 1
46 309 1
46 311 1
47 259 1
47 308 1
47 309 1
48 259 1
48 309 1
48 311 1
49 259 1
49 309 1
49 311 1
50 259 1
50 308 1
50 309 1
51 259 1
51 309 1
51 311 1
52 99 1
52 100 1
52 603 1
53 99 1
53 100 1
53 603 1
54 99 1
54 100 1
54 603 1
55 99 1
55 100 1
55 603 1
56 99 1
56 100 1
56 603 1
57 99 1
57 100 1
57 603 1
58 87 1
58 256 1
58 409 1
59 87 1
59 256 1
59 409 1
60 87 1
60 256 1
60 409 1
61 87 1
61 256 1
61 409 1
62 87 1
62 256 1
62 409 1
63 516 1
63 517 1
63 661 1
64 87 1
64 409 1
64 731 1
65 87 1
65 409 1
65 731 1
66 87 1
66 409 1
66 731 1
67 87 1
67 409 1
67 731 1
68 87 1
68 409 1
68 731 1
69 87 1
69 256 1
69 409 1
70 87 1
70 256 1
70 409 1
71 87 1
71 256 1
71 409 1
72 87 1
72 256 1
72 409 1
73 87 1
73 256 1
73 409 1
74 234 1
74 244 1
74 250 1
75 259 1
75 308 1
75 309 1
76 450 1
76 456 1
76 531 1
77 259 1
77 308 1
77 314 1
78 670 1
78 776 1
78 777 1
79 259 1
79 308 1
79 314 1
80 259 1
80 308 1
80 309 1
81 179 1
81 268 1
81 489 1
82 268 1
82 489 1
82 778 1
83 259 1
83 308 1
83 309 1
84 779 1
84 780 1
84 781 1
85 259 1
85 309 1
85 470 1
86 259 1
86 309 1
86 313 1
87 221 1
87 222 1
87 309 1
88 780 1
88 781 1
88 786 1
89 308 1
89 309 1
89 313 1
90 450 1
90 456 1
90 531 1
91 259 1
91 308 1
91 314 1
92 456 1
92 502 1
92 512 1
93 456 1
93 502 1
93 512 1
94 259 1
94 308 1
94 309 1
95 259 1
95 261 1
95 262 1
96 309 1
96 783 1
96 789 1
97 259 1
97 308 1
97 309 1
98 259 1
98 261 1
98 262 1
99 259 1
99 309 1
99 311 1
100 259 1
100 308 1
100 314 1
101 259 1
101 309 1
101 310 1
102 308 1
102 309 1
102 313 1
103 450 1
103 456 1
103 531 1
104 456 1
104 502 1
104 512 1
105 259 1
105 308 1
105 309 1
106 259 1
106 308 1
106 314 1
107 221 1
107 222 1
107 309 1
108 308 1
108 309 1
108 313 1
109 308 1
109 309 1
109 313 1
110 456 1
110 502 1
110 512 1
111 259 1
111 308 1
111 314 1
112 259 1
112 308 1
112 314 1
113 259 1
113 309 1
113 311 1
114 259 1
114 308 1
114 314 1
115 307 1
115 308 1
115 309 1
116 259 1
116 308 1
116 314 1
117 259 1
117 308 1
117 309 1
118 259 1
118 309 1
118 313 1
119 259 1
119 309 1
119 310 1
120 259 1
120 308 1
120 314 1
121 498 1
121 827 1
121 828 1
122 456 1
122 502 1
122 512 1
123 456 1
123 502 1
123 512 1
124 232 1
124 309 1
124 358 1
125 259 1
125 260 1
125 262 1
126 260 1
126 261 1
126 262 1
127 259 1
127 260 1
127 262 1
128 268 1
128 489 1
128 778 1
129 847 1
129 935 1
129 938 1
130 258 1
130 313 1
130 663 1
131 259 1
131 260 1
131 262 1
132 352 1
132 967 1
132 968 1
133 261 1
133 263 1
133 339 1
134 244 1
134 358 1
134 1014 1
135 234 1
135 235 1
135 236 1
136 1020 1
136 1021 1
136 1022 1
137 1020 1
137 1021 1
137 1022 1
138 1020 1
138 1021 1
138 1022 1
139 1024 1
139 1074 1
139 1145 1
140 1024 1
140 1074 1
140 1145 1
141 1051 1
141 1063 1
141 1149 1
142 1032 1
142 1040 1
142 1092 1
143 1020 1
143 1105 1
143 1151 1
144 1056 1
144 1061 1
144 1095 1
145 213 1
145 1070 1
145 1124 1
146 1119 1
146 1160 1
146 1164 1
147 1119 1
147 1160 1
147 1165 1
148 1039 1
148 1119 1
148 1126 1
149 1039 1
149 1119 1
149 1126 1
150 244 1
150 1032 1
150 1166 1
151 236 1
151 246 1
151 768 1
152 213 1
152 355 1
152 495 1
153 213 1
153 355 1
153 786 1
154 213 1
154 355 1
154 786 1
155 213 1
155 355 1
155 786 1
156 213 1
156 355 1
156 786 1
157 213 1
157 355 1
157 786 1
158 213 1
158 355 1
158 786 1
159 213 1
159 355 1
159 786 1
160 213 1
160 355 1
160 786 1
161 213 1
161 355 1
161 786 1
162 213 1
162 355 1
162 786 1
163 213 1
163 355 1
163 786 1
164 213 1
164 355 1
164 786 1
165 213 1
165 355 1
165 786 1
166 213 1
166 355 1
166 495 1
167 1290 1
167 1291 1
167 1292 1
168 1225 1
168 1235 1
168 1466 1
169 1290 1
169 1291 1
169 1292 1
170 1290 1
170 1291 1
170 1292 1
171 1295 1
171 1297 1
171 1302 1
172 1295 1
172 1297 1
172 1302 1
173 1295 1
173 1297 1
173 1302 1
174 1245 1
174 1246 1
174 1352 1
175 259 1
175 308 1
175 314 1
176 261 1
176 356 1
176 822 1
177 259 1
177 308 1
177 309 1
178 259 1
178 309 1
178 1492 1
179 259 1
179 308 1
179 309 1
180 259 1
180 308 1
180 309 1
181 259 1
181 309 1
181 311 1
182 259 1
182 308 1
182 309 1
183 259 1
183 309 1
183 314 1
184 259 1
184 308 1
184 309 1
185 261 1
185 310 1
185 1490 1
186 261 1
186 308 1
186 1490 1
187 259 1
187 308 1
187 309 1
188 261 1
188 310 1
188 1490 1
189 261 1
189 310 1
189 1490 1
190 261 1
190 310 1
190 1490 1
191 261 1
191 310 1
191 1490 1
192 259 1
192 308 1
192 309 1
193 261 1
193 356 1
193 822 1
194 261 1
194 356 1
194 822 1
195 356 1
195 828 1
195 1493 1
196 259 1
196 309 1
196 310 1
197 259 1
197 309 1
197 310 1
198 259 1
198 262 1
198 1494 1
199 259 1
199 262 1
199 1494 1
200 235 1
200 246 1
200 768 1
201 898 1
201 1012 1
201 1015 1
202 234 1
202 235 1
202 245 1
203 822 1
203 844 1
203 1520 1
204 822 1
204 844 1
204 1520 1
205 213 1
205 355 1
205 495 1
206 213 1
206 355 1
206 495 1
207 213 1
207 355 1
207 1181 1
208 213 1
208 355 1
208 1181 1
209 213 1
209 355 1
209 1181 1
210 213 1
210 355 1
210 1181 1
211 213 1
211 355 1
211 1181 1
212 213 1
212 355 1
212 1181 1
213 213 1
213 355 1
213 1181 1
214 213 1
214 355 1
214 1181 1
215 213 1
215 355 1
215 1181 1
216 213 1
216 355 1
216 1181 1
217 213 1
217 355 1
217 1181 1
218 213 1
218 355 1
218 1181 1
219 213 1
219 355 1
219 1181 1
220 213 1
220 355 1
220 1181 1
221 213 1
221 355 1
221 1181 1
222 213 1
222 355 1
222 1181 1
223 213 1
223 355 1
223 1181 1
224 213 1
224 355 1
224 1181 1
225 213 1
225 355 1
225 1181 1
226 213 1
226 355 1
226 1181 1
227 213 1
227 355 1
227 1181 1
228 268 1
228 489 1
228 778 1
229 259 1
229 261 1
229 262 1
230 259 1
230 309 1
230 310 1
231 259 1
231 308 1
231 314 1
232 779 1
232 780 1
232 781 1
233 259 1
233 309 1
233 311 1
234 259 1
234 308 1
234 309 1
235 259 1
235 308 1
235 309 1
236 259 1
236 309 1
236 470 1
237 670 1
237 776 1
237 777 1
238 259 1
238 309 1
238 313 1
239 259 1
239 261 1
239 262 1
240 268 1
240 489 1
240 778 1
241 221 1
241 222 1
241 309 1
242 259 1
242 261 1
242 262 1
243 776 1
243 894 1
243 1553 1
244 259 1
244 262 1
244 1494 1
245 308 1
245 309 1
245 313 1
246 259 1
246 308 1
246 310 1
247 450 1
247 456 1
247 531 1
248 259 1
248 308 1
248 314 1
249 308 1
249 309 1
249 313 1
250 259 1
250 261 1
250 262 1
251 259 1
251 262 1
251 1494 1
252 309 1
252 783 1
252 789 1
253 259 1
253 308 1
253 314 1
254 259 1
254 309 1
254 313 1
255 259 1
255 261 1
255 262 1
256 259 1
256 308 1
256 314 1
257 259 1
257 309 1
257 311 1
258 259 1
258 308 1
258 310 1
259 259 1
259 308 1
259 309 1
260 259 1
260 309 1
260 313 1
261 450 1
261 456 1
261 531 1
262 308 1
262 309 1
262 313 1
263 308 1
263 309 1
263 313 1
264 259 1
264 309 1
264 311 1
265 259 1
265 308 1
265 309 1
266 259 1
266 308 1
266 314 1
267 268 1
267 489 1
267 778 1
268 259 1
268 309 1
268 311 1
269 450 1
269 456 1
269 531 1
270 259 1
270 309 1
270 310 1
271 259 1
271 308 1
271 309 1
272 259 1
272 308 1
272 314 1
273 259 1
273 309 1
273 311 1
274 259 1
274 308 1
274 309 1
275 259 1
275 309 1
275 470 1
276 259 1
276 309 1
276 311 1
277 259 1
277 261 1
277 262 1
278 259 1
278 309 1
278 313 1
279 259 1
279 308 1
279 309 1
280 259 1
280 308 1
280 309 1
281 221 1
281 222 1
281 309 1
282 308 1
282 309 1
282 313 1
283 235 1
283 246 1
283 768 1
284 234 1
284 236 1
284 768 1
285 308 1
285 309 1
285 313 1
286 307 1
286 308 1
286 309 1
287 450 1
287 456 1
287 531 1
288 259 1
288 261 1
288 262 1
289 235 1
289 246 1
289 768 1
290 268 1
290 358 1
290 489 1
291 456 1
291 502 1
291 512 1
292 259 1
292 308 1
292 314 1
293 259 1
293 308 1
293 314 1
294 259 1
294 308 1
294 314 1
295 259 1
295 309 1
295 311 1
296 307 1
296 308 1
296 309 1
297 259 1
297 308 1
297 314 1
298 259 1
298 308 1
298 309 1
299 670 1
299 776 1
299 1553 1
300 259 1
300 308 1
300 309 1
301 259 1
301 308 1
301 314 1
302 259 1
302 308 1
302 309 1
303 259 1
303 309 1
303 311 1
304 259 1
304 308 1
304 309 1
305 259 1
305 308 1
305 309 1
306 259 1
306 308 1
306 314 1
307 259 1
307 309 1
307 311 1
308 268 1
308 489 1
308 778 1
309 259 1
309 308 1
309 309 1
310 670 1
310 776 1
310 777 1
311 179 1
311 268 1
311 489 1
312 670 1
312 776 1
312 1553 1
313 259 1
313 309 1
313 313 1
314 259 1
314 310 1
314 663 1
315 234 1
315 244 1
315 246 1
316 236 1
316 244 1
316 246 1
317 259 1
317 309 1
317 313 1
318 259 1
318 308 1
318 309 1
319 259 1
319 309 1
319 313 1
320 259 1
320 309 1
320 311 1
321 671 1
321 776 1
321 894 1
322 671 1
322 776 1
322 894 1
323 308 1
323 309 1
323 313 1
324 259 1
324 308 1
324 309 1
325 259 1
325 308 1
325 314 1
326 670 1
326 776 1
326 777 1
327 268 1
327 489 1
327 778 1
328 670 1
328 776 1
328 777 1
329 222 1
329 234 1
329 236 1
330 268 1
330 358 1
330 489 1
331 776 1
331 894 1
331 1553 1
332 244 1
332 358 1
332 1014 1
333 259 1
333 308 1
333 309 1
334 942 1
334 1096 1
334 1571 1
335 942 1
335 1096 1
335 1571 1
336 1039 1
336 1068 1
336 1077 1
337 1039 1
337 1068 1
337 1077 1
338 244 1
338 358 1
338 1014 1
339 259 1
339 309 1
339 313 1
340 236 1
340 246 1
340 768 1
341 308 1
341 309 1
341 313 1
342 259 1
342 261 1
342 506 1
343 259 1
343 309 1
343 470 1
344 99 1
344 100 1
344 603 1
345 99 1
345 100 1
345 603 1
346 99 1
346 100 1
346 603 1
347 99 1
347 100 1
347 603 1
348 99 1
348 100 1
348 603 1
349 99 1
349 100 1
349 603 1
350 465 1
350 1083 1
350 1622 1
351 327 1
351 465 1
351 1083 1
352 268 1
352 489 1
352 778 1
353 268 1
353 489 1
353 778 1
354 213 1
354 355 1
354 495 1
355 213 1
355 355 1
355 1181 1
356 213 1
356 355 1
356 1181 1
357 213 1
357 355 1
357 1181 1
358 213 1
358 355 1
358 1181 1
359 213 1
359 355 1
359 1181 1
360 213 1
360 355 1
360 1181 1
361 213 1
361 355 1
361 495 1
362 213 1
362 355 1
362 1181 1
363 213 1
363 355 1
363 1181 1
364 213 1
364 355 1
364 1181 1
365 213 1
365 355 1
365 1181 1
366 268 1
366 489 1
366 778 1
367 308 1
367 309 1
367 310 1
368 307 1
368 308 1
368 309 1
369 308 1
369 309 1
369 310 1
370 352 1
370 967 1
370 968 1
371 232 1
371 309 1
371 804 1
372 669 1
372 776 1
372 1551 1
373 268 1
373 489 1
373 778 1
374 259 1
374 261 1
374 262 1
375 260 1
375 261 1
375 262 1
376 259 1
376 260 1
376 262 1
377 456 1
377 502 1
377 512 1
378 456 1
378 502 1
378 512 1
379 456 1
379 502 1
379 512 1
380 456 1
380 502 1
380 512 1
381 308 1
381 663 1
381 765 1
382 456 1
382 502 1
382 512 1
383 310 1
383 663 1
383 774 1
384 309 1
384 310 1
384 774 1
385 259 1
385 309 1
385 310 1
386 222 1
386 234 1
386 236 1
387 222 1
387 234 1
387 236 1
388 222 1
388 234 1
388 236 1
389 222 1
389 234 1
389 236 1
390 222 1
390 234 1
390 236 1
391 222 1
391 234 1
391 236 1
392 222 1
392 234 1
392 236 1
393 221 1
393 222 1
393 309 1
394 258 1
394 310 1
394 663 1
395 307 1
395 308 1
395 663 1
396 233 1
396 268 1
396 489 1
397 268 1
397 489 1
397 778 1
398 259 1
398 260 1
398 262 1
399 260 1
399 261 1
399 262 1
400 259 1
400 260 1
400 262 1
401 450 1
401 456 1
401 531 1
402 450 1
402 456 1
402 531 1
403 307 1
403 308 1
403 663 1
404 263 1
404 313 1
404 663 1
405 263 1
405 310 1
405 663 1
406 263 1
406 309 1
406 820 1
407 259 1
407 260 1
407 262 1
408 355 1
408 1493 1
408 1522 1
409 321 1
409 322 1
409 346 1
410 263 1
410 307 1
410 663 1
411 259 1
411 260 1
411 262 1
412 268 1
412 778 1
412 1805 1
413 259 1
413 260 1
413 262 1
414 710 1
414 711 1
414 1810 1
415 99 1
415 100 1
415 603 1
416 99 1
416 100 1
416 603 1
417 99 1
417 100 1
417 603 1
418 99 1
418 100 1
418 603 1
419 99 1
419 100 1
419 603 1
420 99 1
420 100 1
420 603 1
421 87 1
421 256 1
421 409 1
422 87 1
422 256 1
422 409 1
423 87 1
423 256 1
423 409 1
424 87 1
424 256 1
424 409 1
425 87 1
425 256 1
425 409 1
426 465 1
426 1083 1
426 1622 1
427 456 1
427 502 1
427 512 1
428 456 1
428 502 1
428 512 1
429 779 1
429 780 1
429 781 1
430 456 1
430 502 1
430 512 1
431 268 1
431 489 1
431 778 1
432 233 1
432 268 1
432 489 1
433 268 1
433 489 1
433 778 1
434 268 1
434 489 1
434 1823 1
435 171 1
435 268 1
435 489 1
436 171 1
436 268 1
436 489 1
437 260 1
437 261 1
437 262 1
438 308 1
438 310 1
438 663 1
439 259 1
439 261 1
439 262 1
440 456 1
440 502 1
440 512 1
441 456 1
441 502 1
441 512 1
442 259 1
442 308 1
442 309 1
443 259 1
443 308 1
443 314 1
444 259 1
444 308 1
444 314 1
445 259 1
445 308 1
445 314 1
446 307 1
446 308 1
446 309 1
447 259 1
447 308 1
447 309 1
448 308 1
448 309 1
448 313 1
449 221 1
449 222 1
449 309 1
450 221 1
450 222 1
450 309 1
451 307 1
451 308 1
451 309 1
452 259 1
452 308 1
452 314 1
453 308 1
453 309 1
453 313 1
454 259 1
454 260 1
454 262 1
455 259 1
455 308 1
455 309 1
456 233 1
456 268 1
456 489 1
457 261 1
457 356 1
457 828 1
458 259 1
458 309 1
458 310 1
459 259 1
459 309 1
459 310 1
460 259 1
460 261 1
460 262 1
461 268 1
461 489 1
461 778 1
462 498 1
462 822 1
462 1181 1
463 822 1
463 1181 1
463 1831 1
464 498 1
464 822 1
464 1181 1
465 233 1
465 268 1
465 489 1
466 234 1
466 235 1
466 236 1
467 259 1
467 309 1
467 311 1
468 179 1
468 268 1
468 489 1
469 179 1
469 268 1
469 489 1
470 259 1
470 261 1
470 262 1
471 236 1
471 244 1
471 246 1
472 235 1
472 236 1
472 768 1
473 235 1
473 236 1
473 768 1
474 259 1
474 308 1
474 314 1
475 259 1
475 309 1
475 311 1
476 259 1
476 308 1
476 314 1
477 234 1
477 235 1
477 236 1
478 234 1
478 235 1
478 768 1
479 234 1
479 235 1
479 236 1
480 234 1
480 236 1
480 245 1
481 234 1
481 236 1
481 768 1
482 234 1
482 235 1
482 236 1
483 234 1
483 235 1
483 768 1
484 234 1
484 235 1
484 768 1
485 234 1
485 235 1
485 768 1
486 234 1
486 235 1
486 236 1
487 259 1
487 260 1
487 262 1
488 234 1
488 236 1
488 502 1
489 234 1
489 236 1
489 502 1
490 234 1
490 235 1
490 502 1
491 234 1
491 236 1
491 502 1
492 234 1
492 236 1
492 502 1
493 244 1
493 311 1
493 1169 1
494 222 1
494 234 1
494 236 1
495 234 1
495 236 1
495 1545 1
496 236 1
496 502 1
496 1563 1
497 236 1
497 502 1
497 1563 1
498 234 1
498 236 1
498 502 1
499 236 1
499 502 1
499 1563 1
500 234 1
500 236 1
500 502 1
501 234 1
501 236 1
501 502 1
502 222 1
502 234 1
502 236 1
503 234 1
503 236 1
503 502 1
504 234 1
504 236 1
504 502 1
505 222 1
505 234 1
505 236 1
506 259 1
506 308 1
506 314 1
507 259 1
507 308 1
507 314 1
508 259 1
508 261 1
508 262 1
509 259 1
509 309 1
509 311 1
510 221 1
510 222 1
510 309 1
511 259 1
511 308 1
511 309 1
512 268 1
512 489 1
512 778 1
513 259 1
513 309 1
513 311 1
514 259 1
514 308 1
514 309 1
515 222 1
515 234 1
515 236 1
516 222 1
516 234 1
516 236 1
517 222 1
517 234 1
517 236 1
518 494 1
518 669 1
518 1862 1
519 494 1
519 669 1
519 1862 1
520 494 1
520 669 1
520 1862 1
521 494 1
521 669 1
521 1862 1
522 669 1
522 1491 1
522 1654 1
523 1020 1
523 1021 1
523 1022 1
524 669 1
524 776 1
524 1491 1
525 669 1
525 776 1
525 1491 1
526 669 1
526 776 1
526 1491 1
527 669 1
527 776 1
527 1654 1
528 669 1
528 776 1
528 1654 1
529 669 1
529 776 1
529 1654 1
530 669 1
530 776 1
530 1654 1
531 669 1
531 776 1
531 1654 1
532 669 1
532 776 1
532 1654 1
533 1020 1
533 1021 1
533 1022 1
534 234 1
534 244 1
534 245 1
535 234 1
535 244 1
535 245 1
536 234 1
536 244 1
536 245 1
537 234 1
537 244 1
537 245 1
538 235 1
538 250 1
538 768 1
539 234 1
539 244 1
539 245 1
540 234 1
540 244 1
540 245 1
541 234 1
541 235 1
541 236 1
542 234 1
542 235 1
542 245 1
543 234 1
543 236 1
543 768 1
544 235 1
544 246 1
544 768 1
545 234 1
545 236 1
545 768 1
546 235 1
546 246 1
546 768 1
547 235 1
547 246 1
547 768 1
548 234 1
548 246 1
548 768 1
549 234 1
549 246 1
549 768 1
550 234 1
550 246 1
550 768 1
551 234 1
551 235 1
551 244 1
552 171 1
552 268 1
552 489 1
553 1032 1
553 1040 1
553 1081 1
554 235 1
554 246 1
554 768 1
555 235 1
555 246 1
555 768 1
556 235 1
556 246 1
556 768 1
557 235 1
557 246 1
557 768 1
558 357 1
558 1089 1
558 1556 1
559 1837 1
559 1839 1
559 1840 1
560 234 1
560 235 1
560 502 1
561 234 1
561 235 1
561 502 1
562 312 1
562 894 1
562 1553 1
563 776 1
563 894 1
563 1553 1
564 484 1
564 1565 1
564 1934 1
565 222 1
565 234 1
565 236 1
566 234 1
566 236 1
566 502 1
567 234 1
567 236 1
567 502 1
568 234 1
568 236 1
568 502 1
569 234 1
569 236 1
569 502 1
570 234 1
570 236 1
570 502 1
571 234 1
571 236 1
571 502 1
572 234 1
572 236 1
572 502 1
573 234 1
573 236 1
573 502 1
574 234 1
574 236 1
574 502 1
575 234 1
575 236 1
575 502 1
576 234 1
576 236 1
576 502 1
577 234 1
577 236 1
577 502 1
578 234 1
578 236 1
578 502 1
579 776 1
579 894 1
579 1553 1
580 234 1
580 235 1
580 502 1
581 234 1
581 235 1
581 502 1
582 234 1
582 236 1
582 1555 1
583 234 1
583 235 1
583 245 1
584 234 1
584 235 1
584 245 1
585 234 1
585 235 1
585 245 1
586 234 1
586 235 1
586 245 1
587 234 1
587 235 1
587 245 1
588 234 1
588 235 1
588 245 1
589 234 1
589 235 1
589 245 1
590 234 1
590 235 1
590 245 1
591 234 1
591 235 1
591 245 1
592 234 1
592 235 1
592 245 1
593 234 1
593 235 1
593 245 1
594 234 1
594 235 1
594 245 1
595 234 1
595 235 1
595 245 1
596 234 1
596 235 1
596 245 1
597 234 1
597 235 1
597 245 1
598 234 1
598 235 1
598 245 1
599 234 1
599 235 1
599 245 1
600 234 1
600 235 1
600 245 1
601 234 1
601 235 1
601 245 1
602 234 1
602 235 1
602 245 1
603 234 1
603 235 1
603 245 1
604 234 1
604 235 1
604 245 1
605 234 1
605 235 1
605 245 1
606 234 1
606 235 1
606 245 1
607 234 1
607 235 1
607 245 1
608 234 1
608 235 1
608 245 1
609 234 1
609 235 1
609 768 1
610 234 1
610 235 1
610 768 1
611 234 1
611 250 1
611 768 1
612 1032 1
612 1924 1
612 1939 1
613 1032 1
613 1924 1
613 1939 1
614 1032 1
614 1924 1
614 1939 1
615 1032 1
615 1924 1
615 1939 1
616 1032 1
616 1924 1
616 1939 1
617 259 1
617 309 1
617 311 1
618 259 1
618 309 1
618 311 1
619 234 1
619 235 1
619 245 1
620 234 1
620 235 1
620 245 1
621 234 1
621 236 1
621 768 1
622 308 1
622 309 1
622 1933 1
623 308 1
623 309 1
623 1933 1
624 308 1
624 309 1
624 313 1
625 663 1
625 1689 1
625 1943 1
626 308 1
626 309 1
626 313 1
627 663 1
627 1689 1
627 1943 1
628 308 1
628 309 1
628 313 1
629 670 1
629 776 1
629 1553 1
630 234 1
630 235 1
630 236 1
631 234 1
631 235 1
631 246 1
632 234 1
632 236 1
632 768 1
633 234 1
633 235 1
633 236 1
634 234 1
634 235 1
634 236 1
635 234 1
635 235 1
635 236 1
636 234 1
636 235 1
636 236 1
637 234 1
637 235 1
637 236 1
638 234 1
638 235 1
638 236 1
639 234 1
639 235 1
639 236 1
640 234 1
640 235 1
640 236 1
641 234 1
641 235 1
641 768 1
642 234 1
642 235 1
642 236 1
643 235 1
643 246 1
643 768 1
644 234 1
644 235 1
644 768 1
645 234 1
645 235 1
645 768 1
646 234 1
646 235 1
646 768 1
647 234 1
647 235 1
647 768 1
648 234 1
648 768 1
648 1555 1
649 235 1
649 246 1
649 768 1
650 235 1
650 246 1
650 768 1
651 235 1
651 246 1
651 768 1
652 235 1
652 246 1
652 768 1
653 234 1
653 235 1
653 768 1
654 234 1
654 246 1
654 768 1
655 234 1
655 235 1
655 768 1
656 235 1
656 246 1
656 768 1
657 235 1
657 246 1
657 768 1
658 235 1
658 246 1
658 768 1
659 235 1
659 246 1
659 768 1
660 235 1
660 246 1
660 768 1
661 235 1
661 246 1
661 768 1
662 235 1
662 246 1
662 768 1
663 235 1
663 246 1
663 768 1
664 235 1
664 246 1
664 768 1
665 235 1
665 246 1
665 768 1
666 234 1
666 246 1
666 768 1
667 235 1
667 246 1
667 768 1
668 235 1
668 246 1
668 768 1
669 235 1
669 246 1
669 768 1
670 235 1
670 246 1
670 768 1
671 235 1
671 246 1
671 768 1
672 235 1
672 246 1
672 768 1
673 235 1
673 246 1
673 768 1
674 235 1
674 246 1
674 768 1
675 235 1
675 246 1
675 768 1
676 235 1
676 246 1
676 768 1
677 235 1
677 246 1
677 768 1
678 235 1
678 246 1
678 768 1
679 235 1
679 246 1
679 768 1
680 235 1
680 246 1
680 768 1
681 235 1
681 246 1
681 768 1
682 235 1
682 246 1
682 768 1
683 235 1
683 246 1
683 768 1
684 235 1
684 246 1
684 768 1
685 235 1
685 246 1
685 768 1
686 235 1
686 246 1
686 768 1
687 235 1
687 246 1
687 768 1
688 235 1
688 246 1
688 768 1
689 235 1
689 246 1
689 768 1
690 235 1
690 246 1
690 768 1
691 235 1
691 246 1
691 768 1
692 235 1
692 246 1
692 768 1
693 235 1
693 246 1
693 768 1
694 235 1
694 246 1
694 768 1
695 235 1
695 246 1
695 768 1
696 235 1
696 246 1
696 768 1
697 235 1
697 246 1
697 768 1
698 235 1
698 246 1
698 768 1
699 235 1
699 246 1
699 768 1
700 235 1
700 246 1
700 768 1
701 235 1
701 246 1
701 768 1
702 259 1
702 308 1
702 310 1
703 259 1
703 308 1
703 314 1
704 234 1
704 235 1
704 244 1
705 234 1
705 235 1
705 244 1
706 234 1
706 235 1
706 244 1
707 234 1
707 235 1
707 244 1
708 236 1
708 246 1
708 768 1
709 235 1
709 250 1
709 768 1
710 236 1
710 246 1
710 768 1
711 234 1
711 244 1
711 246 1
712 670 1
712 776 1
712 1553 1
713 268 1
713 489 1
713 778 1
714 259 1
714 260 1
714 262 1
715 235 1
715 250 1
715 768 1
716 235 1
716 250 1
716 768 1
717 235 1
717 246 1
717 768 1
718 235 1
718 246 1
718 768 1
719 234 1
719 235 1
719 768 1
720 235 1
720 246 1
720 768 1
721 235 1
721 246 1
721 768 1
722 235 1
722 246 1
722 768 1
723 234 1
723 235 1
723 768 1
724 234 1
724 244 1
724 245 1
725 234 1
725 235 1
725 768 1
726 234 1
726 235 1
726 768 1
727 308 1
727 309 1
727 313 1
728 308 1
728 313 1
728 663 1
729 308 1
729 309 1
729 313 1
730 450 1
730 456 1
730 531 1
731 450 1
731 456 1
731 531 1
732 259 1
732 308 1
732 314 1
733 259 1
733 308 1
733 314 1
734 259 1
734 308 1
734 314 1
735 179 1
735 268 1
735 489 1
736 259 1
736 262 1
736 1494 1
737 259 1
737 308 1
737 309 1
738 259 1
738 309 1
738 311 1
739 259 1
739 309 1
739 313 1
740 259 1
740 261 1
740 262 1
741 259 1
741 308 1
741 309 1
742 259 1
742 261 1
742 262 1
743 308 1
743 309 1
743 313 1
744 259 1
744 308 1
744 309 1
745 268 1
745 358 1
745 489 1
746 450 1
746 456 1
746 531 1
747 259 1
747 308 1
747 314 1
748 308 1
748 309 1
748 313 1
749 456 1
749 502 1
749 512 1
750 259 1
750 261 1
750 262 1
751 259 1
751 262 1
751 1494 1
752 309 1
752 783 1
752 789 1
753 259 1
753 308 1
753 309 1
754 268 1
754 489 1
754 778 1
755 259 1
755 308 1
755 314 1
756 259 1
756 309 1
756 311 1
757 259 1
757 308 1
757 309 1
758 259 1
758 308 1
758 314 1
759 308 1
759 309 1
759 313 1
760 259 1
760 261 1
760 262 1
761 259 1
761 309 1
761 311 1
762 450 1
762 456 1
762 531 1
763 259 1
763 308 1
763 309 1
764 259 1
764 308 1
764 314 1
765 259 1
765 309 1
765 311 1
766 259 1
766 308 1
766 314 1
767 259 1
767 309 1
767 313 1
768 456 1
768 502 1
768 512 1
769 259 1
769 308 1
769 309 1
770 670 1
770 776 1
770 1553 1
771 308 1
771 309 1
771 313 1
772 308 1
772 309 1
772 313 1
773 259 1
773 261 1
773 262 1
774 268 1
774 358 1
774 489 1
775 259 1
775 308 1
775 314 1
776 259 1
776 1494 1
776 1495 1
777 259 1
777 309 1
777 311 1
778 259 1
778 1494 1
778 1495 1
779 259 1
779 308 1
779 314 1
780 307 1
780 308 1
780 309 1
781 259 1
781 308 1
781 309 1
782 233 1
782 268 1
782 489 1
783 268 1
783 489 1
783 778 1
784 233 1
784 268 1
784 489 1
785 232 1
785 484 1
785 485 1
786 232 1
786 485 1
786 1955 1
787 671 1
787 1031 1
787 1092 1
788 671 1
788 1031 1
788 1092 1
789 259 1
789 308 1
789 309 1
790 259 1
790 308 1
790 314 1
791 259 1
791 308 1
791 314 1
792 259 1
792 308 1
792 314 1
793 179 1
793 268 1
793 489 1
794 268 1
794 489 1
794 778 1
795 259 1
795 308 1
795 309 1
796 308 1
796 309 1
796 313 1
797 268 1
797 489 1
797 778 1
798 221 1
798 222 1
798 309 1
799 780 1
799 781 1
799 786 1
800 450 1
800 456 1
800 531 1
801 308 1
801 309 1
801 313 1
802 669 1
802 1491 1
802 1654 1
803 450 1
803 456 1
803 531 1
804 259 1
804 261 1
804 262 1
805 259 1
805 308 1
805 314 1
806 259 1
806 261 1
806 262 1
807 259 1
807 262 1
807 1494 1
808 259 1
808 262 1
808 1494 1
809 779 1
809 780 1
809 781 1
810 259 1
810 308 1
810 314 1
811 670 1
811 776 1
811 777 1
812 259 1
812 308 1
812 314 1
813 259 1
813 308 1
813 310 1
814 450 1
814 456 1
814 531 1
815 308 1
815 309 1
815 313 1
816 259 1
816 309 1
816 313 1
817 259 1
817 309 1
817 311 1
818 259 1
818 308 1
818 309 1
819 268 1
819 358 1
819 489 1
820 259 1
820 308 1
820 309 1
821 308 1
821 309 1
821 313 1
822 221 1
822 222 1
822 309 1
823 259 1
823 261 1
823 262 1
824 268 1
824 358 1
824 489 1
825 308 1
825 309 1
825 313 1
826 234 1
826 235 1
826 768 1
827 259 1
827 1494 1
827 1495 1
828 259 1
828 309 1
828 311 1
829 259 1
829 308 1
829 314 1
830 259 1
830 308 1
830 309 1
831 259 1
831 308 1
831 314 1
832 259 1
832 308 1
832 314 1
833 259 1
833 261 1
833 262 1
834 259 1
834 308 1
834 309 1
835 259 1
835 308 1
835 309 1
836 259 1
836 309 1
836 311 1
837 235 1
837 246 1
837 768 1
838 259 1
838 308 1
838 309 1
839 259 1
839 308 1
839 310 1
840 259 1
840 309 1
840 313 1
841 259 1
841 309 1
841 311 1
842 234 1
842 235 1
842 768 1
843 259 1
843 309 1
843 313 1
844 259 1
844 309 1
844 313 1
845 259 1
845 1494 1
845 1495 1
846 268 1
846 358 1
846 489 1
847 942 1
847 1096 1
847 1571 1
848 234 1
848 235 1
848 236 1
849 236 1
849 246 1
849 768 1
850 236 1
850 246 1
850 768 1
851 246 1
851 250 1
851 768 1
852 236 1
852 246 1
852 768 1
853 236 1
853 246 1
853 768 1
854 246 1
854 250 1
854 768 1
855 235 1
855 246 1
855 768 1
856 308 1
856 309 1
856 313 1
857 308 1
857 309 1
857 313 1
858 308 1
858 309 1
858 313 1
859 308 1
859 309 1
859 313 1
860 308 1
860 309 1
860 313 1
861 308 1
861 309 1
861 313 1
862 259 1
862 308 1
862 309 1
863 259 1
863 308 1
863 309 1
864 234 1
864 236 1
864 246 1
865 235 1
865 246 1
865 250 1
866 234 1
866 236 1
866 1563 1
867 234 1
867 236 1
867 1563 1
868 234 1
868 236 1
868 1563 1
869 234 1
869 236 1
869 1563 1
870 234 1
870 236 1
870 1563 1
871 246 1
871 250 1
871 768 1
872 246 1
872 250 1
872 768 1
873 246 1
873 250 1
873 768 1
874 222 1
874 776 1
874 894 1
875 244 1
875 776 1
875 1014 1
876 222 1
876 670 1
876 776 1
877 465 1
877 1886 1
877 1968 1
878 233 1
878 670 1
878 776 1
879 263 1
879 307 1
879 309 1
880 663 1
880 1933 1
880 1943 1
881 308 1
881 663 1
881 1933 1
882 234 1
882 244 1
882 245 1
883 234 1
883 236 1
883 245 1
884 234 1
884 235 1
884 236 1
885 234 1
885 244 1
885 245 1
886 234 1
886 244 1
886 245 1
887 234 1
887 244 1
887 245 1
888 234 1
888 244 1
888 245 1
889 234 1
889 244 1
889 245 1
890 234 1
890 244 1
890 245 1
891 234 1
891 244 1
891 245 1
892 234 1
892 235 1
892 236 1
893 234 1
893 235 1
893 236 1
894 234 1
894 236 1
894 245 1
895 234 1
895 236 1
895 245 1
896 234 1
896 236 1
896 245 1
897 234 1
897 236 1
897 245 1
898 234 1
898 236 1
898 245 1
899 234 1
899 236 1
899 245 1
900 234 1
900 236 1
900 245 1
901 234 1
901 236 1
901 245 1
902 234 1
902 236 1
902 245 1
903 234 1
903 236 1
903 245 1
904 234 1
904 236 1
904 245 1
905 234 1
905 236 1
905 245 1
906 234 1
906 236 1
906 245 1
907 234 1
907 236 1
907 245 1
908 234 1
908 236 1
908 245 1
909 234 1
909 236 1
909 244 1
910 234 1
910 236 1
910 245 1
911 234 1
911 236 1
911 245 1
912 234 1
912 236 1
912 245 1
913 234 1
913 236 1
913 245 1
914 234 1
914 236 1
914 245 1
915 234 1
915 236 1
915 245 1
916 234 1
916 236 1
916 245 1
917 234 1
917 236 1
917 245 1
918 234 1
918 236 1
918 245 1
919 234 1
919 236 1
919 245 1
920 234 1
920 236 1
920 245 1
921 234 1
921 236 1
921 245 1
922 246 1
922 250 1
922 768 1
923 234 1
923 244 1
923 245 1
924 234 1
924 244 1
924 245 1
925 234 1
925 244 1
925 245 1
926 234 1
926 244 1
926 245 1
927 234 1
927 244 1
927 245 1
928 234 1
928 244 1
928 245 1
929 234 1
929 244 1
929 245 1
930 234 1
930 244 1
930 245 1
931 234 1
931 244 1
931 245 1
932 234 1
932 244 1
932 245 1
933 234 1
933 244 1
933 245 1
934 234 1
934 244 1
934 245 1
935 234 1
935 244 1
935 245 1
936 234 1
936 244 1
936 245 1
937 234 1
937 244 1
937 245 1
938 234 1
938 244 1
938 245 1
939 234 1
939 244 1
939 245 1
940 234 1
940 244 1
940 245 1
941 234 1
941 244 1
941 245 1
942 234 1
942 244 1
942 245 1
943 234 1
943 244 1
943 245 1
944 234 1
944 244 1
944 245 1
945 234 1
945 244 1
945 245 1
946 234 1
946 244 1
946 245 1
947 234 1
947 244 1
947 245 1
948 234 1
948 244 1
948 245 1
949 234 1
949 244 1
949 245 1
950 234 1
950 244 1
950 245 1
951 234 1
951 244 1
951 245 1
952 234 1
952 244 1
952 245 1
953 234 1
953 236 1
953 245 1
954 234 1
954 236 1
954 245 1
955 234 1
955 236 1
955 245 1
956 234 1
956 236 1
956 245 1
957 234 1
957 236 1
957 244 1
958 234 1
958 236 1
958 244 1
959 234 1
959 236 1
959 244 1
960 234 1
960 236 1
960 244 1
961 234 1
961 236 1
961 244 1
962 234 1
962 236 1
962 244 1
963 234 1
963 236 1
963 244 1
964 234 1
964 236 1
964 244 1
965 234 1
965 236 1
965 244 1
966 246 1
966 250 1
966 768 1
967 246 1
967 250 1
967 768 1
968 236 1
968 246 1
968 768 1
969 235 1
969 246 1
969 768 1
970 236 1
970 246 1
970 768 1
971 235 1
971 246 1
971 768 1
972 235 1
972 246 1
972 768 1
973 235 1
973 246 1
973 768 1
974 234 1
974 235 1
974 246 1
975 235 1
975 246 1
975 768 1
976 235 1
976 246 1
976 768 1
977 236 1
977 246 1
977 768 1
978 236 1
978 246 1
978 768 1
979 235 1
979 246 1
979 768 1
980 235 1
980 246 1
980 768 1
981 236 1
981 246 1
981 768 1
982 235 1
982 246 1
982 768 1
983 236 1
983 246 1
983 768 1
984 235 1
984 246 1
984 768 1
985 235 1
985 246 1
985 768 1
986 235 1
986 246 1
986 768 1
987 235 1
987 246 1
987 768 1
988 235 1
988 246 1
988 768 1
989 235 1
989 250 1
989 768 1
990 235 1
990 250 1
990 768 1
991 235 1
991 250 1
991 768 1
992 235 1
992 246 1
992 768 1
993 235 1
993 246 1
993 768 1
994 87 1
994 256 1
994 409 1
995 87 1
995 256 1
995 409 1
996 87 1
996 256 1
996 409 1
997 87 1
997 256 1
997 409 1
998 87 1
998 256 1
998 409 1
999 87 1
999 731 1
999 1979 1
1000 87 1
1000 731 1
1000 1979 1
1001 87 1
1001 731 1
1001 1979 1
1002 87 1
1002 731 1
1002 1979 1
1003 87 1
1003 731 1
1003 1979 1
1004 234 1
1004 244 1
1004 245 1
1005 234 1
1005 235 1
1005 1555 1
1006 234 1
1006 244 1
1006 245 1
1007 234 1
1007 244 1
1007 245 1
1008 234 1
1008 244 1
1008 245 1
1009 234 1
1009 235 1
1009 244 1
1010 234 1
1010 235 1
1010 1555 1
1011 234 1
1011 244 1
1011 245 1
1012 234 1
1012 244 1
1012 245 1
1013 234 1
1013 235 1
1013 244 1
1014 234 1
1014 244 1
1014 245 1
1015 234 1
1015 235 1
1015 245 1
1016 234 1
1016 235 1
1016 245 1
1017 234 1
1017 235 1
1017 245 1
1018 234 1
1018 235 1
1018 245 1
1019 234 1
1019 235 1
1019 245 1
1020 234 1
1020 244 1
1020 245 1
1021 234 1
1021 244 1
1021 245 1
1022 234 1
1022 244 1
1022 245 1
1023 234 1
1023 244 1
1023 245 1
1024 234 1
1024 244 1
1024 245 1
1025 234 1
1025 235 1
1025 245 1
1026 234 1
1026 235 1
1026 245 1
1027 234 1
1027 235 1
1027 245 1
1028 234 1
1028 235 1
1028 245 1
1029 234 1
1029 235 1
1029 245 1
1030 234 1
1030 235 1
1030 245 1
1031 234 1
1031 244 1
1031 245 1
1032 234 1
1032 244 1
1032 245 1
1033 234 1
1033 244 1
1033 245 1
1034 234 1
1034 244 1
1034 245 1
1035 234 1
1035 244 1
1035 245 1
1036 234 1
1036 244 1
1036 245 1
1037 234 1
1037 244 1
1037 245 1
1038 234 1
1038 244 1
1038 245 1
1039 234 1
1039 244 1
1039 245 1
1040 234 1
1040 244 1
1040 245 1
1041 234 1
1041 244 1
1041 245 1
1042 234 1
1042 244 1
1042 245 1
1043 234 1
1043 244 1
1043 245 1
1044 234 1
1044 235 1
1044 245 1
1045 234 1
1045 235 1
1045 1555 1
1046 234 1
1046 244 1
1046 245 1
1047 234 1
1047 244 1
1047 245 1
1048 234 1
1048 244 1
1048 245 1
1049 234 1
1049 244 1
1049 245 1
1050 234 1
1050 244 1
1050 245 1
1051 234 1
1051 244 1
1051 245 1
1052 234 1
1052 244 1
1052 245 1
1053 234 1
1053 244 1
1053 245 1
1054 234 1
1054 244 1
1054 245 1
1055 234 1
1055 244 1
1055 245 1
1056 234 1
1056 244 1
1056 245 1
1057 234 1
1057 244 1
1057 245 1
1058 234 1
1058 244 1
1058 245 1
1059 234 1
1059 244 1
1059 245 1
1060 234 1
1060 244 1
1060 245 1
1061 234 1
1061 244 1
1061 245 1
1062 234 1
1062 235 1
1062 245 1
1063 234 1
1063 235 1
1063 245 1
1064 234 1
1064 235 1
1064 245 1
1065 234 1
1065 235 1
1065 1555 1
1066 234 1
1066 244 1
1066 245 1
1067 234 1
1067 244 1
1067 245 1
1068 234 1
1068 235 1
1068 245 1
1069 234 1
1069 235 1
1069 245 1
1070 234 1
1070 244 1
1070 245 1
1071 234 1
1071 246 1
1071 768 1
1072 359 1
1072 1985 1
1072 1986 1
1073 233 1
1073 268 1
1073 489 1
1074 233 1
1074 268 1
1074 489 1
1075 268 1
1075 489 1
1075 778 1
1076 233 1
1076 268 1
1076 489 1
1077 268 1
1077 489 1
1077 778 1
1078 259 1
1078 308 1
1078 1690 1
1079 259 1
1079 308 1
1079 314 1
1080 498 1
1080 828 1
1080 1181 1
1081 234 1
1081 235 1
1081 768 1
1082 234 1
1082 235 1
1082 768 1
1083 234 1
1083 244 1
1083 245 1
1084 234 1
1084 244 1
1084 245 1
1085 234 1
1085 244 1
1085 245 1
1086 234 1
1086 244 1
1086 245 1
1087 234 1
1087 244 1
1087 245 1
1088 234 1
1088 244 1
1088 245 1
1089 234 1
1089 244 1
1089 245 1
1090 234 1
1090 244 1
1090 245 1
1091 234 1
1091 236 1
1091 245 1
1092 234 1
1092 236 1
1092 246 1
1093 234 1
1093 236 1
1093 246 1
1094 234 1
1094 244 1
1094 245 1
1095 234 1
1095 244 1
1095 245 1
1096 234 1
1096 244 1
1096 245 1
1097 234 1
1097 244 1
1097 245 1
1098 234 1
1098 244 1
1098 245 1
1099 234 1
1099 244 1
1099 245 1
1100 234 1
1100 235 1
1100 236 1
1101 234 1
1101 236 1
1101 246 1
1102 234 1
1102 235 1
1102 236 1
1103 234 1
1103 235 1
1103 236 1
1104 234 1
1104 244 1
1104 245 1
1105 234 1
1105 244 1
1105 245 1
1106 234 1
1106 244 1
1106 245 1
1107 234 1
1107 244 1
1107 245 1
1108 234 1
1108 244 1
1108 245 1
1109 234 1
1109 244 1
1109 245 1
1110 234 1
1110 236 1
1110 1555 1
1111 234 1
1111 236 1
1111 1555 1
1112 234 1
1112 235 1
1112 236 1
1113 234 1
1113 236 1
1113 245 1
1114 234 1
1114 244 1
1114 246 1
1115 234 1
1115 236 1
1115 245 1
1116 246 1
1116 250 1
1116 768 1
1117 234 1
1117 235 1
1117 236 1
1118 234 1
1118 236 1
1118 245 1
1119 234 1
1119 236 1
1119 245 1
1120 234 1
1120 244 1
1120 245 1
1121 234 1
1121 244 1
1121 245 1
1122 234 1
1122 244 1
1122 245 1
1123 234 1
1123 244 1
1123 245 1
1124 234 1
1124 244 1
1124 245 1
1125 234 1
1125 244 1
1125 245 1
1126 234 1
1126 244 1
1126 245 1
1127 234 1
1127 244 1
1127 245 1
1128 234 1
1128 244 1
1128 245 1
1129 234 1
1129 236 1
1129 245 1
1130 234 1
1130 236 1
1130 245 1
1131 234 1
1131 236 1
1131 245 1
1132 234 1
1132 236 1
1132 245 1
1133 234 1
1133 236 1
1133 245 1
1134 234 1
1134 244 1
1134 245 1
1135 234 1
1135 244 1
1135 245 1
1136 234 1
1136 244 1
1136 245 1
1137 234 1
1137 244 1
1137 245 1
1138 234 1
1138 244 1
1138 245 1
1139 234 1
1139 244 1
1139 245 1
1140 234 1
1140 244 1
1140 245 1
1141 234 1
1141 244 1
1141 245 1
1142 234 1
1142 244 1
1142 245 1
1143 234 1
1143 244 1
1143 245 1
1144 234 1
1144 236 1
1144 245 1
1145 234 1
1145 236 1
1145 244 1
1146 234 1
1146 236 1
1146 244 1
1147 234 1
1147 236 1
1147 244 1
1148 234 1
1148 236 1
1148 244 1
1149 234 1
1149 236 1
1149 244 1
1150 234 1
1150 236 1
1150 244 1
1151 234 1
1151 236 1
1151 244 1
1152 234 1
1152 236 1
1152 244 1
1153 234 1
1153 236 1
1153 244 1
1154 246 1
1154 250 1
1154 768 1
1155 259 1
1155 262 1
1155 1999 1
1156 179 1
1156 244 1
1156 502 1
1157 244 1
1157 502 1
1157 503 1
1158 268 1
1158 489 1
1158 778 1
1159 259 1
1159 308 1
1159 314 1
1160 259 1
1160 308 1
1160 314 1
1161 259 1
1161 308 1
1161 314 1
1162 259 1
1162 308 1
1162 309 1
1163 308 1
1163 309 1
1163 313 1
1164 308 1
1164 309 1
1164 313 1
1165 259 1
1165 308 1
1165 309 1
1166 456 1
1166 502 1
1166 512 1
1167 259 1
1167 308 1
1167 309 1
1168 259 1
1168 308 1
1168 314 1
1169 259 1
1169 261 1
1169 262 1
1170 259 1
1170 309 1
1170 311 1
1171 259 1
1171 309 1
1171 311 1
1172 259 1
1172 308 1
1172 309 1
1173 259 1
1173 262 1
1173 1494 1
1174 259 1
1174 308 1
1174 310 1
1175 307 1
1175 308 1
1175 309 1
1176 259 1
1176 308 1
1176 310 1
1177 259 1
1177 309 1
1177 313 1
1178 259 1
1178 309 1
1178 310 1
1179 259 1
1179 309 1
1179 310 1
1180 261 1
1180 356 1
1180 828 1
1181 259 1
1181 309 1
1181 311 1
1182 259 1
1182 309 1
1182 311 1
1183 259 1
1183 308 1
1183 314 1
1184 259 1
1184 308 1
1184 314 1
1185 259 1
1185 308 1
1185 309 1
1186 259 1
1186 309 1
1186 470 1
1187 307 1
1187 663 1
1187 1943 1
1188 1169 1
1188 1179 1
1188 1491 1
1189 464 1
1189 2007 1
1189 2008 1
1190 355 1
1190 1089 1
1190 1929 1
1191 1022 1
1191 1047 1
1191 1125 1
1192 213 1
1192 1022 1
1192 1929 1
1193 1046 1
1193 1095 1
1193 1929 1
1194 357 1
1194 841 1
1194 1125 1
1195 213 1
1195 1022 1
1195 1088 1
1196 234 1
1196 235 1
1196 244 1
1197 309 1
1197 313 1
1197 1943 1
1198 308 1
1198 309 1
1198 310 1
1199 307 1
1199 308 1
1199 663 1
1200 308 1
1200 309 1
1200 310 1
1201 263 1
1201 663 1
1201 1494 1
1202 308 1
1202 309 1
1202 310 1
1203 263 1
1203 313 1
1203 663 1
1204 259 1
1204 260 1
1204 262 1
1205 171 1
1205 492 1
1205 1169 1
1206 233 1
1206 268 1
1206 489 1
1207 171 1
1207 268 1
1207 489 1
1208 268 1
1208 489 1
1208 778 1
1209 171 1
1209 268 1
1209 489 1
1210 259 1
1210 260 1
1210 262 1
1211 260 1
1211 261 1
1211 262 1
1212 259 1
1212 261 1
1212 262 1
1213 450 1
1213 456 1
1213 531 1
1214 450 1
1214 456 1
1214 531 1
1215 450 1
1215 456 1
1215 531 1
1216 259 1
1216 261 1
1216 262 1
1217 776 1
1217 777 1
1217 1553 1
1218 235 1
1218 246 1
1218 768 1
1219 670 1
1219 776 1
1219 1569 1
1220 268 1
1220 489 1
1220 778 1
1221 236 1
1221 246 1
1221 768 1
1222 236 1
1222 246 1
1222 768 1
1223 236 1
1223 246 1
1223 768 1
1224 236 1
1224 246 1
1224 768 1
1225 236 1
1225 246 1
1225 768 1
1226 236 1
1226 246 1
1226 768 1
1227 236 1
1227 246 1
1227 768 1
1228 236 1
1228 246 1
1228 768 1
1229 236 1
1229 246 1
1229 768 1
1230 236 1
1230 246 1
1230 768 1
1231 236 1
1231 246 1
1231 768 1
1232 236 1
1232 246 1
1232 768 1
1233 236 1
1233 246 1
1233 768 1
1234 236 1
1234 246 1
1234 768 1
1235 236 1
1235 246 1
1235 768 1
1236 236 1
1236 246 1
1236 768 1
1237 236 1
1237 246 1
1237 768 1
1238 236 1
1238 246 1
1238 768 1
1239 236 1
1239 246 1
1239 768 1
1240 265 1
1240 266 1
1240 267 1
1241 265 1
1241 266 1
1241 267 1
1242 265 1
1242 266 1
1242 267 1
1243 259 1
1243 260 1
1243 262 1
1244 456 1
1244 502 1
1244 512 1
1245 456 1
1245 502 1
1245 512 1
1246 776 1
1246 894 1
1246 1553 1
1247 245 1
1247 246 1
1247 768 1
1248 670 1
1248 776 1
1248 1553 1
1249 179 1
1249 268 1
1249 489 1
1250 776 1
1250 777 1
1250 894 1
1251 221 1
1251 222 1
1251 309 1
1252 235 1
1252 236 1
1252 1563 1
1253 259 1
1253 309 1
1253 311 1
1254 259 1
1254 308 1
1254 314 1
1255 670 1
1255 776 1
1255 777 1
1256 179 1
1256 268 1
1256 489 1
1257 259 1
1257 308 1
1257 314 1
1258 268 1
1258 358 1
1258 489 1
1259 307 1
1259 308 1
1259 309 1
1260 450 1
1260 456 1
1260 531 1
1261 259 1
1261 308 1
1261 309 1
1262 268 1
1262 489 1
1262 778 1
1263 259 1
1263 309 1
1263 470 1
1264 259 1
1264 261 1
1264 262 1
1265 221 1
1265 222 1
1265 309 1
1266 776 1
1266 894 1
1266 1553 1
1267 780 1
1267 781 1
1267 786 1
1268 259 1
1268 308 1
1268 309 1
1269 450 1
1269 456 1
1269 531 1
1270 456 1
1270 502 1
1270 512 1
1271 259 1
1271 308 1
1271 314 1
1272 456 1
1272 502 1
1272 512 1
1273 259 1
1273 261 1
1273 262 1
1274 308 1
1274 309 1
1274 313 1
1275 259 1
1275 262 1
1275 1494 1
1276 268 1
1276 489 1
1276 778 1
1277 259 1
1277 308 1
1277 309 1
1278 259 1
1278 308 1
1278 309 1
1279 259 1
1279 308 1
1279 314 1
1280 456 1
1280 502 1
1280 512 1
1281 259 1
1281 309 1
1281 311 1
1282 456 1
1282 502 1
1282 512 1
1283 259 1
1283 261 1
1283 262 1
1284 268 1
1284 358 1
1284 489 1
1285 259 1
1285 308 1
1285 309 1
1286 259 1
1286 261 1
1286 262 1
1287 221 1
1287 222 1
1287 309 1
1288 221 1
1288 222 1
1288 309 1
1289 779 1
1289 780 1
1289 781 1
1290 221 1
1290 222 1
1290 309 1
1291 456 1
1291 502 1
1291 512 1
1292 268 1
1292 358 1
1292 489 1
1293 308 1
1293 309 1
1293 313 1
1294 259 1
1294 308 1
1294 309 1
1295 259 1
1295 308 1
1295 309 1
1296 450 1
1296 456 1
1296 531 1
1297 259 1
1297 309 1
1297 313 1
1298 259 1
1298 261 1
1298 262 1
1299 259 1
1299 309 1
1299 311 1
1300 259 1
1300 262 1
1300 1494 1
1301 260 1
1301 261 1
1301 262 1
1302 268 1
1302 489 1
1302 778 1
1303 268 1
1303 489 1
1303 778 1
1304 259 1
1304 260 1
1304 262 1
1305 259 1
1305 260 1
1305 262 1
1306 260 1
1306 261 1
1306 262 1
1307 171 1
1307 268 1
1307 489 1
1308 171 1
1308 268 1
1308 489 1
1309 268 1
1309 489 1
1309 1823 1
1310 233 1
1310 268 1
1310 489 1
1311 261 1
1311 262 1
1311 812 1
1312 259 1
1312 260 1
1312 262 1
1313 308 1
1313 309 1
1313 310 1
1314 670 1
1314 776 1
1314 1553 1
1315 670 1
1315 776 1
1315 1553 1
1316 312 1
1316 670 1
1316 1553 1
1317 670 1
1317 776 1
1317 1553 1
1318 670 1
1318 776 1
1318 777 1
1319 776 1
1319 2565 1
1319 2567 1
1320 263 1
1320 307 1
1320 663 1
1321 259 1
1321 1494 1
1321 1943 1
1322 663 1
1322 1494 1
1322 1943 1
1323 236 1
1323 246 1
1323 768 1
1324 822 1
1324 1181 1
1324 1831 1
1325 171 1
1325 268 1
1325 489 1
1326 171 1
1326 268 1
1326 489 1
1327 268 1
1327 489 1
1327 778 1
1328 268 1
1328 489 1
1328 1823 1
1329 233 1
1329 268 1
1329 489 1
1330 233 1
1330 268 1
1330 489 1
1331 670 1
1331 776 1
1331 1553 1
1332 308 1
1332 309 1
1332 313 1
1333 776 1
1333 777 1
1333 894 1
1334 312 1
1334 670 1
1334 1553 1
1335 222 1
1335 244 1
1335 1179 1
1336 232 1
1336 484 1
1336 485 1
1337 1048 1
1337 1050 1
1337 1066 1
1338 1050 1
1338 1066 1
1338 1893 1
1339 240 1
1339 555 1
1339 898 1
1340 259 1
1340 308 1
1340 309 1
1341 259 1
1341 308 1
1341 314 1
1342 259 1
1342 308 1
1342 309 1
1343 179 1
1343 268 1
1343 489 1
1344 259 1
1344 309 1
1344 310 1
1345 259 1
1345 308 1
1345 314 1
1346 670 1
1346 776 1
1346 777 1
1347 259 1
1347 309 1
1347 310 1
1348 259 1
1348 308 1
1348 309 1
1349 450 1
1349 456 1
1349 531 1
1350 450 1
1350 456 1
1350 531 1
1351 259 1
1351 308 1
1351 314 1
1352 465 1
1352 1083 1
1352 1622 1
1353 780 1
1353 781 1
1353 786 1
1354 259 1
1354 308 1
1354 314 1
1355 456 1
1355 502 1
1355 512 1
1356 456 1
1356 502 1
1356 512 1
1357 456 1
1357 502 1
1357 512 1
1358 456 1
1358 502 1
1358 512 1
1359 259 1
1359 261 1
1359 262 1
1360 259 1
1360 261 1
1360 262 1
1361 307 1
1361 308 1
1361 309 1
1362 308 1
1362 309 1
1362 313 1
1363 776 1
1363 777 1
1363 894 1
1364 456 1
1364 502 1
1364 512 1
1365 234 1
1365 235 1
1365 768 1
1366 234 1
1366 235 1
1366 768 1
1367 234 1
1367 235 1
1367 768 1
1368 234 1
1368 245 1
1368 246 1
1369 234 1
1369 236 1
1369 768 1
1370 234 1
1370 236 1
1370 768 1
1371 670 1
1371 776 1
1371 777 1
1372 776 1
1372 777 1
1372 2584 1
1373 234 1
1373 236 1
1373 245 1
1374 448 1
1374 465 1
1374 1654 1
1375 234 1
1375 235 1
1375 768 1
1376 246 1
1376 768 1
1376 1555 1
1377 234 1
1377 245 1
1377 246 1
1378 234 1
1378 245 1
1378 246 1
1379 232 1
1379 1179 1
1379 2588 1
1380 232 1
1380 1179 1
1380 2588 1
1381 232 1
1381 1179 1
1381 1553 1
1382 1014 1
1382 1553 1
1382 2297 1
1383 232 1
1383 1179 1
1383 2590 1
1384 263 1
1384 663 1
1384 2284 1
1385 234 1
1385 246 1
1385 768 1
1386 234 1
1386 246 1
1386 768 1
1387 1893 1
1387 2594 1
1387 2595 1
1388 1893 1
1388 2594 1
1388 2596 1
1389 268 1
1389 489 1
1389 778 1
1390 233 1
1390 268 1
1390 489 1
1391 268 1
1391 778 1
1391 1805 1
1392 268 1
1392 489 1
1392 778 1
1393 221 1
1393 222 1
1393 309 1
1394 776 1
1394 777 1
1394 1569 1
1395 776 1
1395 777 1
1395 1569 1
1396 776 1
1396 777 1
1396 1569 1
1397 776 1
1397 777 1
1397 1569 1
1398 312 1
1398 777 1
1398 1569 1
1399 776 1
1399 777 1
1399 1763 1
1400 456 1
1400 502 1
1400 512 1
1401 312 1
1401 777 1
1401 1569 1
1402 263 1
1402 309 1
1402 1548 1
1403 307 1
1403 308 1
1403 309 1
1404 308 1
1404 309 1
1404 1548 1
1405 308 1
1405 309 1
1405 313 1
1406 259 1
1406 308 1
1406 309 1
1407 259 1
1407 308 1
1407 314 1
1408 268 1
1408 489 1
1408 778 1
1409 670 1
1409 776 1
1409 1553 1
1410 263 1
1410 309 1
1410 310 1
1411 308 1
1411 309 1
1411 313 1
1412 308 1
1412 313 1
1412 663 1
1413 308 1
1413 313 1
1413 663 1
1414 259 1
1414 309 1
1414 313 1
1415 268 1
1415 489 1
1415 778 1
1416 450 1
1416 456 1
1416 531 1
1417 259 1
1417 308 1
1417 314 1
1418 670 1
1418 776 1
1418 777 1
1419 259 1
1419 308 1
1419 314 1
1420 268 1
1420 358 1
1420 1805 1
1421 259 1
1421 308 1
1421 309 1
1422 259 1
1422 308 1
1422 309 1
1423 259 1
1423 309 1
1423 311 1
1424 259 1
1424 309 1
1424 470 1
1425 259 1
1425 309 1
1425 313 1
1426 268 1
1426 489 1
1426 778 1
1427 259 1
1427 262 1
1427 1494 1
1428 221 1
1428 222 1
1428 309 1
1429 450 1
1429 456 1
1429 531 1
1430 259 1
1430 308 1
1430 309 1
1431 776 1
1431 894 1
1431 1553 1
1432 780 1
1432 781 1
1432 786 1
1433 259 1
1433 309 1
1433 313 1
1434 259 1
1434 309 1
1434 311 1
1435 450 1
1435 456 1
1435 531 1
1436 259 1
1436 308 1
1436 314 1
1437 456 1
1437 502 1
1437 512 1
1438 259 1
1438 261 1
1438 262 1
1439 259 1
1439 261 1
1439 262 1
1440 259 1
1440 309 1
1440 311 1
1441 259 1
1441 308 1
1441 314 1
1442 259 1
1442 309 1
1442 313 1
1443 259 1
1443 309 1
1443 310 1
1444 259 1
1444 309 1
1444 313 1
1445 308 1
1445 309 1
1445 313 1
1446 450 1
1446 456 1
1446 531 1
1447 456 1
1447 502 1
1447 512 1
1448 259 1
1448 308 1
1448 309 1
1449 259 1
1449 309 1
1449 310 1
1450 259 1
1450 308 1
1450 309 1
1451 221 1
1451 222 1
1451 309 1
1452 259 1
1452 308 1
1452 309 1
1453 235 1
1453 246 1
1453 768 1
1454 779 1
1454 780 1
1454 781 1
1455 268 1
1455 358 1
1455 489 1
1456 259 1
1456 308 1
1456 314 1
1457 235 1
1457 250 1
1457 768 1
1458 309 1
1458 311 1
1458 2626 1
1459 309 1
1459 313 1
1459 2626 1
1460 308 1
1460 309 1
1460 313 1
1461 456 1
1461 502 1
1461 512 1
1462 259 1
1462 308 1
1462 314 1
1463 259 1
1463 308 1
1463 314 1
1464 222 1
1464 234 1
1464 236 1
1465 259 1
1465 309 1
1465 310 1
1466 259 1
1466 309 1
1466 311 1
1467 259 1
1467 308 1
1467 314 1
1468 307 1
1468 308 1
1468 309 1
1469 259 1
1469 308 1
1469 314 1
1470 259 1
1470 308 1
1470 309 1
1471 259 1
1471 309 1
1471 313 1
1472 234 1
1472 244 1
1472 245 1
1473 234 1
1473 244 1
1473 245 1
1474 234 1
1474 246 1
1474 768 1
1475 234 1
1475 235 1
1475 245 1
1476 234 1
1476 235 1
1476 245 1
1477 234 1
1477 235 1
1477 245 1
1478 234 1
1478 235 1
1478 245 1
1479 234 1
1479 235 1
1479 245 1
1480 234 1
1480 235 1
1480 245 1
1481 234 1
1481 235 1
1481 245 1
1482 234 1
1482 235 1
1482 245 1
1483 312 1
1483 777 1
1483 1569 1
1484 243 1
1484 319 1
1484 2636 1
1485 260 1
1485 261 1
1485 262 1
1486 2638 1
1486 2639 1
1486 2640 1
1487 2641 1
1487 2642 1
1487 2643 1
1488 2638 1
1488 2639 1
1488 2640 1
1489 2642 1
1489 2643 1
1489 2644 1
1490 259 1
1490 260 1
1490 262 1
1491 259 1
1491 261 1
1491 262 1
1492 259 1
1492 262 1
1492 1494 1
1493 259 1
1493 309 1
1493 311 1
1494 259 1
1494 308 1
1494 309 1
1495 259 1
1495 308 1
1495 314 1
1496 259 1
1496 309 1
1496 313 1
1497 670 1
1497 776 1
1497 1553 1
1498 259 1
1498 308 1
1498 309 1
1499 259 1
1499 308 1
1499 314 1
1500 670 1
1500 776 1
1500 1553 1
1501 670 1
1501 776 1
1501 1553 1
1502 776 1
1502 1411 1
1502 2650 1
1503 776 1
1503 1411 1
1503 2650 1
1504 1247 1
1504 2651 1
1504 2652 1
1505 1082 1
1505 1139 1
1505 2653 1
1506 1082 1
1506 1139 1
1506 1864 1
1507 1247 1
1507 1929 1
1507 2656 1
1508 1038 1
1508 1105 1
1508 1160 1
1509 1247 1
1509 2656 1
1509 2657 1
1510 1079 1
1510 1101 1
1510 2658 1
1511 1073 1
1511 1105 1
1511 1925 1
1512 1073 1
1512 1105 1
1512 1925 1
1513 1056 1
1513 1091 1
1513 2659 1
1514 1056 1
1514 1091 1
1514 2659 1
1515 1023 1
1515 1072 1
1515 2405 1
1516 1113 1
1516 1138 1
1516 2101 1
1517 1044 1
1517 1064 1
1517 1084 1
1518 1023 1
1518 1072 1
1518 2405 1
1519 1044 1
1519 1064 1
1519 1084 1
1520 1038 1
1520 1105 1
1520 1160 1
1521 1044 1
1521 1064 1
1521 1084 1
1522 1024 1
1522 1074 1
1522 1145 1
1523 1020 1
1523 1021 1
1523 1045 1
1524 234 1
1524 246 1
1524 768 1
1525 776 1
1525 1553 1
1525 2663 1
1526 365 1
1526 1125 1
1526 1499 1
1527 365 1
1527 1125 1
1527 1499 1
1528 776 1
1528 777 1
1528 1569 1
1529 776 1
1529 777 1
1529 1569 1
1530 776 1
1530 777 1
1530 1569 1
1531 259 1
1531 309 1
1531 313 1
1532 261 1
1532 356 1
1532 828 1
1533 259 1
1533 261 1
1533 1693 1
1534 259 1
1534 261 1
1534 262 1
1535 259 1
1535 1999 1
1535 2677 1
1536 308 1
1536 309 1
1536 313 1
1537 268 1
1537 489 1
1537 778 1
1538 259 1
1538 309 1
1538 313 1
1539 308 1
1539 309 1
1539 313 1
1540 259 1
1540 308 1
1540 314 1
1541 776 1
1541 894 1
1541 2678 1
1542 450 1
1542 456 1
1542 531 1
1543 259 1
1543 308 1
1543 309 1
1544 259 1
1544 309 1
1544 314 1
1545 259 1
1545 309 1
1545 470 1
1546 259 1
1546 308 1
1546 314 1
1547 259 1
1547 309 1
1547 313 1
1548 259 1
1548 261 1
1548 262 1
1549 259 1
1549 309 1
1549 311 1
1550 259 1
1550 262 1
1550 1494 1
1551 221 1
1551 222 1
1551 309 1
1552 259 1
1552 308 1
1552 309 1
1553 308 1
1553 309 1
1553 313 1
1554 259 1
1554 261 1
1554 262 1
1555 308 1
1555 309 1
1555 313 1
1556 259 1
1556 308 1
1556 310 1
1557 259 1
1557 308 1
1557 309 1
1558 259 1
1558 309 1
1558 311 1
1559 450 1
1559 456 1
1559 531 1
1560 259 1
1560 308 1
1560 314 1
1561 244 1
1561 358 1
1561 1014 1
1562 235 1
1562 246 1
1562 768 1
1563 456 1
1563 502 1
1563 512 1
1564 456 1
1564 502 1
1564 512 1
1565 259 1
1565 261 1
1565 262 1
1566 268 1
1566 358 1
1566 489 1
1567 309 1
1567 783 1
1567 789 1
1568 244 1
1568 358 1
1568 1014 1
1569 259 1
1569 308 1
1569 309 1
1570 259 1
1570 261 1
1570 262 1
1571 259 1
1571 309 1
1571 311 1
1572 259 1
1572 308 1
1572 314 1
1573 259 1
1573 309 1
1573 310 1
1574 221 1
1574 222 1
1574 309 1
1575 259 1
1575 309 1
1575 311 1
1576 259 1
1576 309 1
1576 311 1
1577 259 1
1577 308 1
1577 309 1
1578 259 1
1578 309 1
1578 311 1
1579 259 1
1579 309 1
1579 313 1
1580 308 1
1580 309 1
1580 313 1
1581 259 1
1581 308 1
1581 309 1
1582 234 1
1582 235 1
1582 768 1
1583 259 1
1583 261 1
1583 262 1
1584 259 1
1584 308 1
1584 309 1
1585 450 1
1585 456 1
1585 531 1
1586 268 1
1586 489 1
1586 778 1
1587 456 1
1587 502 1
1587 512 1
1588 259 1
1588 308 1
1588 309 1
1589 670 1
1589 776 1
1589 1553 1
1590 259 1
1590 308 1
1590 314 1
1591 450 1
1591 456 1
1591 531 1
1592 259 1
1592 308 1
1592 309 1
1593 259 1
1593 308 1
1593 314 1
1594 221 1
1594 222 1
1594 309 1
1595 670 1
1595 776 1
1595 2678 1
1596 259 1
1596 308 1
1596 309 1
1597 259 1
1597 308 1
1597 314 1
1598 259 1
1598 308 1
1598 309 1
1599 261 1
1599 310 1
1599 1490 1
1600 259 1
1600 309 1
1600 311 1
1601 259 1
1601 309 1
1601 470 1
1602 308 1
1602 309 1
1602 313 1
1603 456 1
1603 502 1
1603 512 1
1604 259 1
1604 308 1
1604 314 1
1605 259 1
1605 309 1
1605 313 1
1606 259 1
1606 308 1
1606 314 1
1607 259 1
1607 309 1
1607 313 1
1608 259 1
1608 309 1
1608 311 1
1609 259 1
1609 309 1
1609 310 1
1610 259 1
1610 309 1
1610 311 1
1611 259 1
1611 308 1
1611 314 1
1612 307 1
1612 308 1
1612 309 1
1613 259 1
1613 308 1
1613 314 1
1614 259 1
1614 309 1
1614 313 1
1615 259 1
1615 308 1
1615 314 1
1616 259 1
1616 308 1
1616 314 1
1617 235 1
1617 246 1
1617 250 1
1618 235 1
1618 246 1
1618 768 1
1619 234 1
1619 244 1
1619 1555 1
1620 259 1
1620 309 1
1620 314 1
1621 259 1
1621 308 1
1621 310 1
1622 259 1
1622 309 1
1622 314 1
1623 670 1
1623 776 1
1623 1553 1
1624 670 1
1624 776 1
1624 1553 1
1625 670 1
1625 776 1
1625 1553 1
1626 259 1
1626 308 1
1626 309 1
1627 259 1
1627 308 1
1627 314 1
1628 259 1
1628 308 1
1628 309 1
1629 670 1
1629 776 1
1629 1553 1
1630 259 1
1630 308 1
1630 310 1
1631 259 1
1631 308 1
1631 314 1
1632 259 1
1632 308 1
1632 314 1
1633 259 1
1633 308 1
1633 314 1
1634 450 1
1634 456 1
1634 531 1
1635 268 1
1635 489 1
1635 778 1
1636 259 1
1636 308 1
1636 314 1
1637 450 1
1637 456 1
1637 531 1
1638 308 1
1638 309 1
1638 313 1
1639 450 1
1639 456 1
1639 531 1
1640 235 1
1640 246 1
1640 768 1
1641 259 1
1641 308 1
1641 314 1
1642 456 1
1642 502 1
1642 512 1
1643 456 1
1643 502 1
1643 512 1
1644 259 1
1644 261 1
1644 262 1
1645 259 1
1645 308 1
1645 314 1
1646 259 1
1646 308 1
1646 309 1
1647 259 1
1647 308 1
1647 314 1
1648 268 1
1648 358 1
1648 489 1
1649 308 1
1649 309 1
1649 313 1
1650 450 1
1650 456 1
1650 531 1
1651 456 1
1651 502 1
1651 512 1
1652 259 1
1652 308 1
1652 309 1
1653 234 1
1653 244 1
1653 768 1
1654 222 1
1654 234 1
1654 236 1
1655 235 1
1655 246 1
1655 768 1
1656 456 1
1656 502 1
1656 512 1
1657 259 1
1657 308 1
1657 314 1
1658 259 1
1658 308 1
1658 309 1
1659 465 1
1659 1083 1
1659 1622 1
1660 261 1
1660 356 1
1660 822 1
1661 261 1
1661 310 1
1661 1490 1
1662 179 1
1662 268 1
1662 1805 1
1663 259 1
1663 261 1
1663 262 1
1664 780 1
1664 781 1
1664 786 1
1665 456 1
1665 502 1
1665 512 1
1666 259 1
1666 1494 1
1666 1495 1
1667 670 1
1667 776 1
1667 1553 1
1668 670 1
1668 776 1
1668 777 1
1669 456 1
1669 502 1
1669 512 1
1670 456 1
1670 502 1
1670 512 1
1671 456 1
1671 502 1
1671 512 1
1672 259 1
1672 308 1
1672 314 1
1673 259 1
1673 308 1
1673 314 1
1674 259 1
1674 308 1
1674 309 1
1675 259 1
1675 309 1
1675 311 1
1676 450 1
1676 456 1
1676 531 1
1677 450 1
1677 456 1
1677 531 1
1678 222 1
1678 234 1
1678 236 1
1679 308 1
1679 309 1
1679 313 1
1680 259 1
1680 261 1
1680 262 1
1681 259 1
1681 308 1
1681 309 1
1682 259 1
1682 308 1
1682 314 1
1683 308 1
1683 309 1
1683 313 1
1684 259 1
1684 308 1
1684 309 1
1685 259 1
1685 262 1
1685 1494 1
1686 259 1
1686 308 1
1686 309 1
1687 259 1
1687 308 1
1687 314 1
1688 259 1
1688 308 1
1688 314 1
1689 259 1
1689 308 1
1689 314 1
1690 259 1
1690 308 1
1690 314 1
1691 259 1
1691 309 1
1691 310 1
1692 259 1
1692 308 1
1692 309 1
1693 307 1
1693 308 1
1693 309 1
1694 780 1
1694 781 1
1694 786 1
1695 268 1
1695 358 1
1695 489 1
1696 259 1
1696 308 1
1696 309 1
1697 259 1
1697 309 1
1697 311 1
1698 259 1
1698 308 1
1698 314 1
1699 259 1
1699 308 1
1699 314 1
1700 179 1
1700 268 1
1700 489 1
1701 259 1
1701 308 1
1701 309 1
1702 450 1
1702 456 1
1702 531 1
1703 259 1
1703 309 1
1703 470 1
1704 456 1
1704 502 1
1704 512 1
1705 358 1
1705 1805 1
1705 2614 1
1706 221 1
1706 222 1
1706 309 1
1707 670 1
1707 776 1
1707 1553 1
1708 268 1
1708 489 1
1708 778 1
1709 308 1
1709 309 1
1709 313 1
1710 450 1
1710 456 1
1710 531 1
1711 259 1
1711 308 1
1711 314 1
1712 456 1
1712 502 1
1712 512 1
1713 259 1
1713 309 1
1713 313 1
1714 259 1
1714 261 1
1714 262 1
1715 259 1
1715 262 1
1715 1494 1
1716 309 1
1716 783 1
1716 789 1
1717 259 1
1717 308 1
1717 309 1
1718 308 1
1718 309 1
1718 313 1
1719 259 1
1719 261 1
1719 262 1
1720 259 1
1720 308 1
1720 309 1
1721 259 1
1721 309 1
1721 311 1
1722 259 1
1722 308 1
1722 314 1
1723 259 1
1723 308 1
1723 309 1
1724 259 1
1724 309 1
1724 310 1
1725 259 1
1725 308 1
1725 314 1
1726 779 1
1726 780 1
1726 781 1
1727 450 1
1727 456 1
1727 531 1
1728 308 1
1728 309 1
1728 313 1
1729 259 1
1729 308 1
1729 309 1
1730 450 1
1730 456 1
1730 531 1
1731 308 1
1731 309 1
1731 313 1
1732 259 1
1732 308 1
1732 309 1
1733 259 1
1733 308 1
1733 314 1
1734 221 1
1734 222 1
1734 309 1
1735 259 1
1735 308 1
1735 309 1
1736 776 1
1736 894 1
1736 2678 1
1737 259 1
1737 309 1
1737 311 1
1738 456 1
1738 502 1
1738 512 1
1739 259 1
1739 308 1
1739 309 1
1740 259 1
1740 308 1
1740 314 1
1741 259 1
1741 308 1
1741 309 1
1742 259 1
1742 309 1
1742 311 1
1743 259 1
1743 308 1
1743 314 1
1744 259 1
1744 308 1
1744 314 1
1745 307 1
1745 308 1
1745 309 1
1746 259 1
1746 308 1
1746 309 1
1747 234 1
1747 236 1
1747 1563 1
1748 265 1
1748 266 1
1748 267 1
1749 179 1
1749 268 1
1749 489 1
1750 234 1
1750 235 1
1750 768 1
1751 234 1
1751 235 1
1751 245 1
1752 234 1
1752 236 1
1752 244 1
1753 234 1
1753 244 1
1753 245 1
1754 222 1
1754 244 1
1754 503 1
1755 776 1
1755 777 1
1755 1569 1
1756 776 1
1756 777 1
1756 1569 1
1757 776 1
1757 777 1
1757 1569 1
1758 268 1
1758 358 1
1758 489 1
1759 244 1
1759 358 1
1759 1014 1
1760 268 1
1760 489 1
1760 778 1
1761 308 1
1761 309 1
1761 313 1
1762 308 1
1762 309 1
1762 313 1
1763 670 1
1763 776 1
1763 777 1
1764 259 1
1764 308 1
1764 314 1
1765 179 1
1765 268 1
1765 489 1
1766 259 1
1766 308 1
1766 309 1
1767 259 1
1767 308 1
1767 314 1
1768 268 1
1768 358 1
1768 489 1
1769 465 1
1769 1083 1
1769 1622 1
1770 259 1
1770 309 1
1770 470 1
1771 259 1
1771 261 1
1771 262 1
1772 259 1
1772 308 1
1772 309 1
1773 221 1
1773 222 1
1773 309 1
1774 268 1
1774 489 1
1774 778 1
1775 259 1
1775 308 1
1775 309 1
1776 450 1
1776 456 1
1776 531 1
1777 259 1
1777 308 1
1777 314 1
1778 456 1
1778 502 1
1778 512 1
1779 259 1
1779 261 1
1779 262 1
1780 308 1
1780 309 1
1780 313 1
1781 259 1
1781 262 1
1781 1494 1
1782 309 1
1782 783 1
1782 789 1
1783 268 1
1783 358 1
1783 489 1
1784 259 1
1784 261 1
1784 262 1
1785 259 1
1785 309 1
1785 311 1
1786 259 1
1786 308 1
1786 314 1
1787 259 1
1787 308 1
1787 309 1
1788 259 1
1788 308 1
1788 314 1
1789 259 1
1789 309 1
1789 313 1
1790 308 1
1790 309 1
1790 313 1
1791 259 1
1791 309 1
1791 313 1
1792 450 1
1792 456 1
1792 531 1
1793 259 1
1793 308 1
1793 309 1
1794 456 1
1794 502 1
1794 512 1
1795 779 1
1795 780 1
1795 781 1
1796 259 1
1796 309 1
1796 311 1
1797 259 1
1797 308 1
1797 309 1
1798 221 1
1798 222 1
1798 309 1
1799 308 1
1799 309 1
1799 313 1
1800 268 1
1800 358 1
1800 489 1
1801 308 1
1801 309 1
1801 313 1
1802 456 1
1802 502 1
1802 512 1
1803 259 1
1803 308 1
1803 314 1
1804 259 1
1804 308 1
1804 309 1
1805 259 1
1805 309 1
1805 311 1
1806 259 1
1806 308 1
1806 314 1
1807 307 1
1807 308 1
1807 309 1
1808 259 1
1808 308 1
1808 314 1
1809 259 1
1809 308 1
1809 309 1
1810 670 1
1810 776 1
1810 1553 1
1811 670 1
1811 776 1
1811 1553 1
1812 244 1
1812 1562 1
1812 2840 1
1813 358 1
1813 502 1
1813 776 1
1814 450 1
1814 456 1
1814 502 1
1815 670 1
1815 776 1
1815 777 1
1816 259 1
1816 1494 1
1816 1495 1
1817 259 1
1817 1495 1
1817 1554 1
1818 259 1
1818 261 1
1818 262 1
1819 259 1
1819 1494 1
1819 1495 1
1820 234 1
1820 236 1
1820 246 1
1821 450 1
1821 456 1
1821 531 1
1822 259 1
1822 308 1
1822 314 1
1823 179 1
1823 268 1
1823 489 1
1824 259 1
1824 308 1
1824 309 1
1825 259 1
1825 309 1
1825 311 1
1826 268 1
1826 489 1
1826 778 1
1827 308 1
1827 309 1
1827 313 1
1828 450 1
1828 456 1
1828 531 1
1829 259 1
1829 308 1
1829 314 1
1830 456 1
1830 502 1
1830 512 1
1831 259 1
1831 308 1
1831 309 1
1832 259 1
1832 261 1
1832 262 1
1833 259 1
1833 308 1
1833 314 1
1834 259 1
1834 309 1
1834 310 1
1835 308 1
1835 309 1
1835 313 1
1836 259 1
1836 308 1
1836 309 1
1837 456 1
1837 502 1
1837 512 1
1838 259 1
1838 308 1
1838 309 1
1839 259 1
1839 308 1
1839 314 1
1840 307 1
1840 308 1
1840 309 1
1841 236 1
1841 246 1
1841 768 1
1842 236 1
1842 246 1
1842 768 1
1843 236 1
1843 246 1
1843 768 1
1844 236 1
1844 246 1
1844 768 1
1845 259 1
1845 308 1
1845 314 1
1846 259 1
1846 308 1
1846 314 1
1847 268 1
1847 489 1
1847 778 1
1848 259 1
1848 309 1
1848 314 1
1849 259 1
1849 309 1
1849 470 1
1850 259 1
1850 309 1
1850 313 1
1851 308 1
1851 309 1
1851 313 1
1852 259 1
1852 308 1
1852 309 1
1853 221 1
1853 222 1
1853 309 1
1854 259 1
1854 262 1
1854 1494 1
1855 259 1
1855 309 1
1855 314 1
1856 259 1
1856 261 1
1856 262 1
1857 670 1
1857 776 1
1857 777 1
1858 235 1
1858 246 1
1858 768 1
1859 259 1
1859 309 1
1859 313 1
1860 259 1
1860 309 1
1860 313 1
1861 450 1
1861 456 1
1861 531 1
1862 780 1
1862 781 1
1862 786 1
1863 308 1
1863 309 1
1863 313 1
1864 450 1
1864 456 1
1864 531 1
1865 259 1
1865 261 1
1865 262 1
1866 259 1
1866 308 1
1866 314 1
1867 456 1
1867 502 1
1867 512 1
1868 236 1
1868 246 1
1868 768 1
1869 259 1
1869 308 1
1869 309 1
1870 259 1
1870 261 1
1870 262 1
1871 259 1
1871 262 1
1871 1494 1
1872 309 1
1872 783 1
1872 789 1
1873 259 1
1873 308 1
1873 309 1
1874 259 1
1874 261 1
1874 262 1
1875 308 1
1875 309 1
1875 313 1
1876 259 1
1876 308 1
1876 314 1
1877 259 1
1877 309 1
1877 313 1
1878 259 1
1878 309 1
1878 311 1
1879 259 1
1879 308 1
1879 314 1
1880 259 1
1880 309 1
1880 310 1
1881 259 1
1881 308 1
1881 314 1
1882 268 1
1882 489 1
1882 778 1
1883 779 1
1883 780 1
1883 781 1
1884 268 1
1884 358 1
1884 489 1
1885 259 1
1885 308 1
1885 309 1
1886 308 1
1886 309 1
1886 313 1
1887 259 1
1887 309 1
1887 311 1
1888 450 1
1888 456 1
1888 531 1
1889 259 1
1889 308 1
1889 309 1
1890 456 1
1890 502 1
1890 512 1
1891 308 1
1891 309 1
1891 313 1
1892 259 1
1892 309 1
1892 313 1
1893 259 1
1893 308 1
1893 309 1
1894 259 1
1894 308 1
1894 314 1
1895 221 1
1895 222 1
1895 309 1
1896 450 1
1896 456 1
1896 531 1
1897 308 1
1897 309 1
1897 313 1
1898 670 1
1898 776 1
1898 1553 1
1899 268 1
1899 489 1
1899 778 1
1900 235 1
1900 246 1
1900 768 1
1901 234 1
1901 235 1
1901 236 1
1902 308 1
1902 309 1
1902 313 1
1903 456 1
1903 502 1
1903 512 1
1904 259 1
1904 308 1
1904 314 1
1905 670 1
1905 776 1
1905 777 1
1906 259 1
1906 308 1
1906 314 1
1907 259 1
1907 309 1
1907 310 1
1908 268 1
1908 358 1
1908 489 1
1909 259 1
1909 309 1
1909 311 1
1910 259 1
1910 308 1
1910 314 1
1911 259 1
1911 308 1
1911 309 1
1912 307 1
1912 308 1
1912 309 1
1913 259 1
1913 308 1
1913 314 1
1914 259 1
1914 308 1
1914 309 1
1915 259 1
1915 308 1
1915 314 1
1916 259 1
1916 308 1
1916 309 1
1917 259 1
1917 261 1
1917 262 1
1918 259 1
1918 261 1
1918 262 1
1919 456 1
1919 502 1
1919 512 1
1920 456 1
1920 502 1
1920 512 1
1921 259 1
1921 308 1
1921 314 1
1922 268 1
1922 489 1
1922 778 1
1923 268 1
1923 358 1
1923 489 1
1924 268 1
1924 489 1
1924 778 1
1925 670 1
1925 776 1
1925 1553 1
1926 268 1
1926 489 1
1926 778 1
1927 259 1
1927 309 1
1927 313 1
1928 259 1
1928 308 1
1928 309 1
1929 308 1
1929 309 1
1929 313 1
1930 670 1
1930 776 1
1930 777 1
1931 259 1
1931 308 1
1931 309 1
1932 259 1
1932 308 1
1932 314 1
1933 268 1
1933 358 1
1933 489 1
1934 259 1
1934 308 1
1934 314 1
1935 259 1
1935 262 1
1935 1494 1
1936 259 1
1936 308 1
1936 309 1
1937 259 1
1937 309 1
1937 314 1
1938 259 1
1938 309 1
1938 470 1
1939 259 1
1939 308 1
1939 309 1
1940 259 1
1940 309 1
1940 313 1
1941 221 1
1941 222 1
1941 309 1
1942 670 1
1942 776 1
1942 1553 1
1943 259 1
1943 308 1
1943 310 1
1944 179 1
1944 268 1
1944 489 1
1945 268 1
1945 358 1
1945 489 1
1946 450 1
1946 456 1
1946 531 1
1947 259 1
1947 308 1
1947 309 1
1948 259 1
1948 308 1
1948 314 1
1949 456 1
1949 502 1
1949 512 1
1950 456 1
1950 502 1
1950 512 1
1951 259 1
1951 261 1
1951 262 1
1952 309 1
1952 783 1
1952 789 1
1953 259 1
1953 308 1
1953 309 1
1954 450 1
1954 456 1
1954 531 1
1955 259 1
1955 261 1
1955 262 1
1956 259 1
1956 308 1
1956 314 1
1957 259 1
1957 308 1
1957 314 1
1958 259 1
1958 309 1
1958 313 1
1959 259 1
1959 308 1
1959 309 1
1960 259 1
1960 308 1
1960 314 1
1961 308 1
1961 309 1
1961 313 1
1962 450 1
1962 456 1
1962 531 1
1963 456 1
1963 502 1
1963 512 1
1964 259 1
1964 309 1
1964 310 1
1965 259 1
1965 308 1
1965 309 1
1966 307 1
1966 308 1
1966 309 1
1967 450 1
1967 456 1
1967 531 1
1968 259 1
1968 308 1
1968 309 1
1969 259 1
1969 308 1
1969 314 1
1970 221 1
1970 222 1
1970 309 1
1971 235 1
1971 246 1
1971 768 1
1972 259 1
1972 308 1
1972 314 1
1973 259 1
1973 309 1
1973 313 1
1974 308 1
1974 309 1
1974 313 1
1975 456 1
1975 502 1
1975 512 1
1976 232 1
1976 484 1
1976 485 1
1977 235 1
1977 246 1
1977 768 1
1978 259 1
1978 261 1
1978 262 1
1979 308 1
1979 309 1
1979 313 1
1980 259 1
1980 309 1
1980 311 1
1981 222 1
1981 234 1
1981 236 1
1982 307 1
1982 308 1
1982 309 1
1983 232 1
1983 484 1
1983 485 1
1984 232 1
1984 484 1
1984 485 1
1985 232 1
1985 484 1
1985 485 1
1986 232 1
1986 484 1
1986 485 1
1987 308 1
1987 313 1
1987 663 1
1988 307 1
1988 308 1
1988 663 1
1989 259 1
1989 262 1
1989 1999 1
1990 259 1
1990 262 1
1990 2852 1
1991 259 1
1991 260 1
1991 262 1
1992 268 1
1992 489 1
1992 778 1
1993 776 1
1993 777 1
1993 894 1
1994 234 1
1994 245 1
1994 768 1
1995 234 1
1995 245 1
1995 768 1
1996 234 1
1996 236 1
1996 245 1
1997 234 1
1997 236 1
1997 245 1
1998 234 1
1998 245 1
1998 768 1
1999 234 1
1999 236 1
1999 245 1
2000 234 1
2000 245 1
2000 768 1
2001 268 1
2001 489 1
2001 778 1
2002 259 1
2002 260 1
2002 262 1
2003 259 1
2003 260 1
2003 262 1
2004 259 1
2004 1999 1
2004 2677 1
2005 234 1
2005 235 1
2005 250 1
2006 1023 1
2006 1044 1
2006 1081 1
2007 1023 1
2007 1044 1
2007 1081 1
2008 1023 1
2008 1044 1
2008 1081 1
2009 1023 1
2009 1044 1
2009 1081 1
2010 1023 1
2010 1044 1
2010 1081 1
2011 1023 1
2011 1044 1
2011 1081 1
2012 1023 1
2012 1044 1
2012 1081 1
2013 234 1
2013 244 1
2013 245 1
2014 234 1
2014 244 1
2014 245 1
2015 234 1
2015 236 1
2015 245 1
2016 234 1
2016 236 1
2016 768 1
2017 234 1
2017 235 1
2017 768 1
2018 235 1
2018 246 1
2018 768 1
2019 235 1
2019 246 1
2019 768 1
2020 234 1
2020 235 1
2020 768 1
2021 259 1
2021 308 1
2021 314 1
2022 259 1
2022 308 1
2022 314 1
2023 259 1
2023 309 1
2023 313 1
2024 259 1
2024 308 1
2024 314 1
2025 259 1
2025 308 1
2025 314 1
2026 268 1
2026 489 1
2026 778 1
2027 259 1
2027 308 1
2027 309 1
2028 259 1
2028 309 1
2028 313 1
2029 259 1
2029 261 1
2029 262 1
2030 259 1
2030 308 1
2030 309 1
2031 259 1
2031 261 1
2031 262 1
2032 308 1
2032 309 1
2032 313 1
2033 259 1
2033 309 1
2033 314 1
2034 259 1
2034 308 1
2034 309 1
2035 259 1
2035 309 1
2035 311 1
2036 450 1
2036 456 1
2036 531 1
2037 221 1
2037 222 1
2037 309 1
2038 259 1
2038 308 1
2038 314 1
2039 456 1
2039 502 1
2039 512 1
2040 259 1
2040 308 1
2040 314 1
2041 259 1
2041 261 1
2041 262 1
2042 309 1
2042 783 1
2042 789 1
2043 259 1
2043 308 1
2043 314 1
2044 259 1
2044 308 1
2044 309 1
2045 259 1
2045 261 1
2045 262 1
2046 308 1
2046 309 1
2046 313 1
2047 259 1
2047 309 1
2047 311 1
2048 259 1
2048 308 1
2048 314 1
2049 259 1
2049 309 1
2049 310 1
2050 259 1
2050 308 1
2050 309 1
2051 308 1
2051 309 1
2051 313 1
2052 259 1
2052 308 1
2052 309 1
2053 259 1
2053 261 1
2053 262 1
2054 259 1
2054 309 1
2054 310 1
2055 450 1
2055 456 1
2055 531 1
2056 456 1
2056 502 1
2056 512 1
2057 259 1
2057 308 1
2057 309 1
2058 259 1
2058 308 1
2058 314 1
2059 221 1
2059 222 1
2059 309 1
2060 259 1
2060 308 1
2060 309 1
2061 308 1
2061 309 1
2061 313 1
2062 456 1
2062 502 1
2062 512 1
2063 259 1
2063 308 1
2063 314 1
2064 259 1
2064 308 1
2064 314 1
2065 259 1
2065 309 1
2065 311 1
2066 259 1
2066 309 1
2066 311 1
2067 259 1
2067 308 1
2067 314 1
2068 307 1
2068 308 1
2068 309 1
2069 259 1
2069 308 1
2069 314 1
2070 259 1
2070 308 1
2070 309 1
2071 259 1
2071 308 1
2071 314 1
2072 235 1
2072 244 1
2072 246 1
2073 234 1
2073 235 1
2073 244 1
2074 260 1
2074 261 1
2074 262 1
2075 259 1
2075 260 1
2075 262 1
2076 2870 1
2076 2871 1
2076 2872 1
2077 234 1
2077 235 1
2077 236 1
2078 234 1
2078 235 1
2078 236 1
2079 234 1
2079 235 1
2079 236 1
2080 234 1
2080 235 1
2080 236 1
2081 234 1
2081 235 1
2081 236 1
2082 234 1
2082 235 1
2082 236 1
2083 234 1
2083 235 1
2083 236 1
2084 234 1
2084 235 1
2084 236 1
2085 234 1
2085 235 1
2085 236 1
2086 234 1
2086 235 1
2086 236 1
2087 234 1
2087 235 1
2087 236 1
2088 234 1
2088 235 1
2088 245 1
2089 234 1
2089 235 1
2089 245 1
2090 234 1
2090 235 1
2090 245 1
2091 234 1
2091 235 1
2091 245 1
2092 234 1
2092 235 1
2092 245 1
2093 234 1
2093 235 1
2093 245 1
2094 234 1
2094 235 1
2094 245 1
2095 234 1
2095 235 1
2095 245 1
2096 234 1
2096 235 1
2096 245 1
2097 234 1
2097 235 1
2097 245 1
2098 234 1
2098 235 1
2098 245 1
2099 234 1
2099 235 1
2099 245 1
2100 670 1
2100 776 1
2100 1553 1
2101 268 1
2101 489 1
2101 778 1
2102 244 1
2102 1562 1
2102 2840 1
2103 670 1
2103 776 1
2103 1553 1
2104 235 1
2104 244 1
2104 250 1
2105 235 1
2105 244 1
2105 250 1
2106 235 1
2106 244 1
2106 250 1
2107 235 1
2107 244 1
2107 250 1
2108 234 1
2108 236 1
2108 768 1
2109 265 1
2109 266 1
2109 267 1
2110 265 1
2110 266 1
2110 267 1
2111 265 1
2111 266 1
2111 267 1
2112 265 1
2112 266 1
2112 267 1
2113 265 1
2113 266 1
2113 267 1
2114 265 1
2114 266 1
2114 267 1
2115 265 1
2115 266 1
2115 267 1
2116 2887 1
2116 2888 1
2116 2889 1
2117 2887 1
2117 2890 1
2117 2891 1
2118 2887 1
2118 2890 1
2118 2891 1
2119 2887 1
2119 2892 1
2119 2893 1
2120 2887 1
2120 2894 1
2120 2895 1
2121 2894 1
2121 2895 1
2121 2896 1
2122 234 1
2122 235 1
2122 768 1
2123 1032 1
2123 1113 1
2123 1115 1
2124 234 1
2124 236 1
2124 768 1
2125 259 1
2125 260 1
2125 262 1
2126 498 1
2126 828 1
2126 1181 1
2127 450 1
2127 1148 1
2127 1893 1
2128 263 1
2128 313 1
2128 663 1
2129 263 1
2129 313 1
2129 663 1
2130 263 1
2130 313 1
2130 663 1
2131 263 1
2131 313 1
2131 663 1
2132 263 1
2132 313 1
2132 663 1
2133 263 1
2133 313 1
2133 2901 1
2134 776 1
2134 777 1
2134 1569 1
2135 670 1
2135 776 1
2135 777 1
2136 234 1
2136 244 1
2136 245 1
2137 234 1
2137 244 1
2137 245 1
2138 234 1
2138 244 1
2138 245 1
2139 234 1
2139 244 1
2139 245 1
2140 234 1
2140 244 1
2140 245 1
2141 234 1
2141 244 1
2141 245 1
2142 234 1
2142 244 1
2142 245 1
2143 234 1
2143 244 1
2143 245 1
2144 234 1
2144 244 1
2144 245 1
2145 234 1
2145 244 1
2145 245 1
2146 234 1
2146 244 1
2146 245 1
2147 234 1
2147 244 1
2147 245 1
2148 234 1
2148 244 1
2148 245 1
2149 234 1
2149 244 1
2149 245 1
2150 234 1
2150 244 1
2150 245 1
2151 234 1
2151 244 1
2151 245 1
2152 234 1
2152 244 1
2152 245 1
2153 234 1
2153 244 1
2153 245 1
2154 234 1
2154 244 1
2154 245 1
2155 234 1
2155 244 1
2155 245 1
2156 234 1
2156 244 1
2156 245 1
2157 234 1
2157 244 1
2157 245 1
2158 234 1
2158 244 1
2158 245 1
2159 234 1
2159 244 1
2159 245 1
2160 234 1
2160 244 1
2160 245 1
2161 234 1
2161 244 1
2161 245 1
2162 234 1
2162 244 1
2162 245 1
2163 234 1
2163 244 1
2163 245 1
2164 234 1
2164 244 1
2164 245 1
2165 234 1
2165 244 1
2165 245 1
2166 234 1
2166 244 1
2166 245 1
2167 234 1
2167 244 1
2167 245 1
2168 234 1
2168 244 1
2168 245 1
2169 234 1
2169 244 1
2169 245 1
2170 234 1
2170 244 1
2170 245 1
2171 234 1
2171 244 1
2171 245 1
2172 234 1
2172 244 1
2172 245 1
2173 234 1
2173 244 1
2173 245 1
2174 234 1
2174 244 1
2174 245 1
2175 234 1
2175 244 1
2175 245 1
2176 234 1
2176 244 1
2176 245 1
2177 234 1
2177 244 1
2177 245 1
2178 234 1
2178 244 1
2178 245 1
2179 234 1
2179 244 1
2179 245 1
2180 234 1
2180 244 1
2180 245 1
2181 234 1
2181 244 1
2181 245 1
2182 234 1
2182 244 1
2182 245 1
2183 234 1
2183 244 1
2183 245 1
2184 234 1
2184 244 1
2184 245 1
2185 234 1
2185 244 1
2185 245 1
2186 234 1
2186 244 1
2186 245 1
2187 234 1
2187 244 1
2187 245 1
2188 234 1
2188 244 1
2188 245 1
2189 234 1
2189 244 1
2189 245 1
2190 234 1
2190 244 1
2190 245 1
2191 234 1
2191 244 1
2191 245 1
2192 234 1
2192 244 1
2192 245 1
2193 234 1
2193 244 1
2193 245 1
2194 234 1
2194 244 1
2194 245 1
2195 234 1
2195 244 1
2195 245 1
2196 234 1
2196 244 1
2196 245 1
2197 234 1
2197 244 1
2197 245 1
2198 234 1
2198 244 1
2198 245 1
2199 234 1
2199 244 1
2199 245 1
2200 234 1
2200 244 1
2200 245 1
2201 234 1
2201 244 1
2201 245 1
2202 234 1
2202 244 1
2202 245 1
2203 234 1
2203 244 1
2203 245 1
2204 234 1
2204 244 1
2204 245 1
2205 234 1
2205 244 1
2205 245 1
2206 234 1
2206 244 1
2206 245 1
2207 234 1
2207 244 1
2207 245 1
2208 234 1
2208 244 1
2208 245 1
2209 234 1
2209 244 1
2209 245 1
2210 234 1
2210 244 1
2210 245 1
2211 234 1
2211 244 1
2211 245 1
2212 234 1
2212 244 1
2212 245 1
2213 234 1
2213 244 1
2213 245 1
2214 234 1
2214 244 1
2214 245 1
2215 234 1
2215 244 1
2215 245 1
2216 234 1
2216 244 1
2216 245 1
2217 234 1
2217 244 1
2217 245 1
2218 234 1
2218 244 1
2218 245 1
2219 234 1
2219 244 1
2219 245 1
2220 234 1
2220 244 1
2220 245 1
2221 234 1
2221 244 1
2221 245 1
2222 234 1
2222 244 1
2222 245 1
2223 234 1
2223 244 1
2223 245 1
2224 234 1
2224 244 1
2224 245 1
2225 234 1
2225 244 1
2225 245 1
2226 234 1
2226 244 1
2226 245 1
2227 234 1
2227 244 1
2227 245 1
2228 234 1
2228 244 1
2228 245 1
2229 234 1
2229 244 1
2229 245 1
2230 234 1
2230 244 1
2230 245 1
2231 234 1
2231 244 1
2231 245 1
2232 234 1
2232 244 1
2232 245 1
2233 234 1
2233 244 1
2233 245 1
2234 234 1
2234 244 1
2234 245 1
2235 234 1
2235 244 1
2235 245 1
2236 234 1
2236 244 1
2236 245 1
2237 234 1
2237 244 1
2237 245 1
2238 234 1
2238 244 1
2238 245 1
2239 234 1
2239 244 1
2239 245 1
2240 234 1
2240 244 1
2240 245 1
2241 234 1
2241 244 1
2241 245 1
2242 234 1
2242 244 1
2242 245 1
2243 234 1
2243 244 1
2243 245 1
2244 234 1
2244 244 1
2244 245 1
2245 234 1
2245 244 1
2245 245 1
2246 234 1
2246 244 1
2246 245 1
2247 234 1
2247 244 1
2247 245 1
2248 234 1
2248 244 1
2248 245 1
2249 234 1
2249 244 1
2249 245 1
2250 234 1
2250 244 1
2250 245 1
2251 234 1
2251 244 1
2251 245 1
2252 234 1
2252 244 1
2252 245 1
2253 234 1
2253 244 1
2253 245 1
2254 234 1
2254 244 1
2254 245 1
2255 234 1
2255 244 1
2255 245 1
2256 234 1
2256 244 1
2256 245 1
2257 234 1
2257 244 1
2257 245 1
2258 234 1
2258 244 1
2258 245 1
2259 234 1
2259 244 1
2259 245 1
2260 234 1
2260 244 1
2260 245 1
2261 234 1
2261 244 1
2261 245 1
2262 234 1
2262 244 1
2262 245 1
2263 234 1
2263 244 1
2263 245 1
2264 234 1
2264 244 1
2264 245 1
2265 234 1
2265 244 1
2265 245 1
2266 234 1
2266 244 1
2266 245 1
2267 234 1
2267 244 1
2267 245 1
2268 234 1
2268 244 1
2268 245 1
2269 234 1
2269 244 1
2269 245 1
2270 234 1
2270 244 1
2270 245 1
2271 234 1
2271 244 1
2271 245 1
2272 234 1
2272 244 1
2272 245 1
2273 234 1
2273 244 1
2273 245 1
2274 234 1
2274 244 1
2274 245 1
2275 234 1
2275 244 1
2275 245 1
2276 234 1
2276 244 1
2276 245 1
2277 234 1
2277 244 1
2277 245 1
2278 234 1
2278 244 1
2278 245 1
2279 234 1
2279 244 1
2279 245 1
2280 234 1
2280 244 1
2280 245 1
2281 234 1
2281 244 1
2281 245 1
2282 234 1
2282 244 1
2282 245 1
2283 234 1
2283 244 1
2283 245 1
2284 234 1
2284 244 1
2284 245 1
2285 234 1
2285 244 1
2285 245 1
2286 234 1
2286 244 1
2286 245 1
2287 234 1
2287 244 1
2287 245 1
2288 234 1
2288 244 1
2288 245 1
2289 234 1
2289 244 1
2289 245 1
2290 234 1
2290 244 1
2290 245 1
2291 234 1
2291 244 1
2291 245 1
2292 234 1
2292 244 1
2292 245 1
2293 234 1
2293 244 1
2293 245 1
2294 234 1
2294 244 1
2294 245 1
2295 234 1
2295 244 1
2295 245 1
2296 234 1
2296 244 1
2296 245 1
2297 234 1
2297 244 1
2297 245 1
2298 234 1
2298 244 1
2298 245 1
2299 234 1
2299 244 1
2299 245 1
2300 234 1
2300 244 1
2300 245 1
2301 234 1
2301 244 1
2301 245 1
2302 234 1
2302 244 1
2302 245 1
2303 234 1
2303 244 1
2303 245 1
2304 234 1
2304 244 1
2304 245 1
2305 234 1
2305 244 1
2305 245 1
2306 234 1
2306 244 1
2306 245 1
2307 234 1
2307 244 1
2307 245 1
2308 234 1
2308 244 1
2308 245 1
2309 234 1
2309 244 1
2309 245 1
2310 234 1
2310 244 1
2310 245 1
2311 234 1
2311 244 1
2311 245 1
2312 234 1
2312 244 1
2312 245 1
2313 234 1
2313 244 1
2313 245 1
2314 234 1
2314 244 1
2314 245 1
2315 234 1
2315 244 1
2315 245 1
2316 234 1
2316 244 1
2316 245 1
2317 234 1
2317 244 1
2317 245 1
2318 234 1
2318 244 1
2318 245 1
2319 234 1
2319 244 1
2319 245 1
2320 234 1
2320 244 1
2320 245 1
2321 234 1
2321 244 1
2321 245 1
2322 234 1
2322 244 1
2322 245 1
2323 234 1
2323 244 1
2323 245 1
2324 234 1
2324 244 1
2324 245 1
2325 234 1
2325 244 1
2325 245 1
2326 234 1
2326 244 1
2326 245 1
2327 234 1
2327 244 1
2327 245 1
2328 234 1
2328 244 1
2328 245 1
2329 234 1
2329 244 1
2329 245 1
2330 234 1
2330 244 1
2330 245 1
2331 234 1
2331 244 1
2331 245 1
2332 234 1
2332 244 1
2332 245 1
2333 234 1
2333 244 1
2333 245 1
2334 234 1
2334 244 1
2334 245 1
2335 234 1
2335 244 1
2335 245 1
2336 234 1
2336 244 1
2336 245 1
2337 234 1
2337 244 1
2337 245 1
2338 234 1
2338 244 1
2338 245 1
2339 234 1
2339 244 1
2339 245 1
2340 234 1
2340 244 1
2340 245 1
2341 234 1
2341 244 1
2341 245 1
2342 234 1
2342 244 1
2342 245 1
2343 234 1
2343 244 1
2343 245 1
2344 234 1
2344 244 1
2344 245 1
2345 234 1
2345 244 1
2345 245 1
2346 234 1
2346 235 1
2346 236 1
2347 234 1
2347 235 1
2347 236 1
2348 234 1
2348 236 1
2348 246 1
2349 234 1
2349 236 1
2349 768 1
2350 776 1
2350 777 1
2350 894 1
2351 776 1
2351 777 1
2351 894 1
2352 234 1
2352 244 1
2352 245 1
2353 234 1
2353 244 1
2353 245 1
2354 234 1
2354 244 1
2354 245 1
2355 234 1
2355 244 1
2355 245 1
2356 234 1
2356 244 1
2356 245 1
2357 234 1
2357 244 1
2357 245 1
2358 234 1
2358 244 1
2358 245 1
2359 234 1
2359 244 1
2359 245 1
2360 234 1
2360 244 1
2360 245 1
2361 234 1
2361 244 1
2361 245 1
2362 234 1
2362 244 1
2362 245 1
2363 234 1
2363 235 1
2363 245 1
2364 234 1
2364 244 1
2364 245 1
2365 234 1
2365 244 1
2365 245 1
2366 234 1
2366 235 1
2366 768 1
2367 234 1
2367 235 1
2367 245 1
2368 234 1
2368 235 1
2368 245 1
2369 234 1
2369 235 1
2369 768 1
2370 234 1
2370 235 1
2370 236 1
2371 234 1
2371 235 1
2371 236 1
2372 234 1
2372 236 1
2372 246 1
2373 234 1
2373 244 1
2373 245 1
2374 234 1
2374 244 1
2374 245 1
2375 234 1
2375 244 1
2375 245 1
2376 234 1
2376 244 1
2376 245 1
2377 234 1
2377 244 1
2377 245 1
2378 234 1
2378 244 1
2378 245 1
2379 234 1
2379 244 1
2379 245 1
2380 234 1
2380 244 1
2380 246 1
2381 710 1
2381 711 1
2381 1810 1
2382 710 1
2382 711 1
2382 1810 1
2383 234 1
2383 236 1
2383 768 1
2384 234 1
2384 236 1
2384 768 1
2385 1031 1
2385 1072 1
2385 2127 1
2386 1031 1
2386 1072 1
2386 2127 1
2387 1078 1
2387 2382 1
2387 2965 1
2388 1056 1
2388 1072 1
2388 1113 1
2389 1023 1
2389 1084 1
2389 2108 1
2390 1078 1
2390 2965 1
2390 3192 1
2391 1056 1
2391 1072 1
2391 1113 1
2392 1056 1
2392 1072 1
2392 1113 1
2393 670 1
2393 776 1
2393 1553 1
2394 1119 1
2394 1148 1
2394 1924 1
2395 1032 1
2395 1074 1
2395 1113 1
2396 1032 1
2396 1113 1
2396 3328 1
2397 1032 1
2397 1113 1
2397 3328 1
2398 1032 1
2398 1074 1
2398 1113 1
2399 1119 1
2399 1148 1
2399 1924 1
2400 1119 1
2400 1148 1
2400 1924 1
2401 1032 1
2401 1074 1
2401 1113 1
2402 1032 1
2402 1074 1
2402 1113 1
2403 920 1
2403 2938 1
2403 3317 1
2404 920 1
2404 2356 1
2404 2371 1
2405 2356 1
2405 2357 1
2405 2360 1
2406 315 1
2406 2444 1
2406 3341 1
2407 1032 1
2407 1081 1
2407 1132 1
2408 308 1
2408 309 1
2408 313 1
2409 308 1
2409 313 1
2409 663 1
2410 308 1
2410 313 1
2410 663 1
2411 308 1
2411 313 1
2411 663 1
2412 234 1
2412 244 1
2412 245 1
2413 234 1
2413 244 1
2413 3421 1
2414 234 1
2414 244 1
2414 768 1
2415 234 1
2415 235 1
2415 250 1
2416 259 1
2416 1999 1
2416 2677 1
2417 259 1
2417 1999 1
2417 2677 1
2418 776 1
2418 1553 1
2418 2102 1
2419 234 1
2419 244 1
2419 245 1
2420 1032 1
2420 1081 1
2420 1132 1
2421 203 1
2421 1070 1
2421 2995 1
2422 203 1
2422 1070 1
2422 2995 1
2423 3292 1
2423 3293 1
2423 3294 1
2424 307 1
2424 308 1
2424 309 1
2425 234 1
2425 235 1
2425 236 1
2426 776 1
2426 777 1
2426 894 1
2427 776 1
2427 894 1
2427 1924 1
2428 232 1
2428 837 1
2428 1125 1
2429 234 1
2429 245 1
2429 3421 1
2430 234 1
2430 245 1
2430 3421 1
2431 244 1
2431 245 1
2431 502 1
2432 307 1
2432 308 1
2432 663 1
2433 308 1
2433 309 1
2433 313 1
2434 308 1
2434 313 1
2434 663 1
2435 308 1
2435 313 1
2435 663 1
2436 308 1
2436 309 1
2436 313 1
2437 308 1
2437 309 1
2437 1933 1
2438 308 1
2438 309 1
2438 313 1
2439 308 1
2439 309 1
2439 310 1
2440 308 1
2440 309 1
2440 313 1
2441 308 1
2441 309 1
2441 313 1
2442 307 1
2442 308 1
2442 309 1
2443 308 1
2443 309 1
2443 313 1
2444 308 1
2444 309 1
2444 313 1
2445 308 1
2445 309 1
2445 313 1
2446 308 1
2446 309 1
2446 313 1
2447 308 1
2447 309 1
2447 313 1
2448 308 1
2448 309 1
2448 313 1
2449 308 1
2449 309 1
2449 310 1
2450 308 1
2450 309 1
2450 313 1
2451 308 1
2451 309 1
2451 313 1
2452 308 1
2452 309 1
2452 313 1
2453 179 1
2453 268 1
2453 489 1
2454 268 1
2454 489 1
2454 778 1
2455 221 1
2455 222 1
2455 309 1
2456 221 1
2456 222 1
2456 309 1
2457 776 1
2457 777 1
2457 1569 1
2458 776 1
2458 777 1
2458 1569 1
2459 776 1
2459 777 1
2459 1569 1
2460 776 1
2460 777 1
2460 1569 1
2461 259 1
2461 260 1
2461 262 1
2462 259 1
2462 262 1
2462 2852 1
2463 259 1
2463 309 1
2463 310 1
2464 259 1
2464 309 1
2464 310 1
2465 259 1
2465 308 1
2465 314 1
2466 221 1
2466 222 1
2466 309 1
2467 259 1
2467 309 1
2467 314 1
2468 259 1
2468 308 1
2468 314 1
2469 259 1
2469 308 1
2469 309 1
2470 259 1
2470 309 1
2470 311 1
2471 259 1
2471 308 1
2471 309 1
2472 259 1
2472 309 1
2472 311 1
2473 259 1
2473 309 1
2473 311 1
2474 259 1
2474 309 1
2474 311 1
2475 259 1
2475 308 1
2475 309 1
2476 259 1
2476 309 1
2476 310 1
2477 221 1
2477 222 1
2477 309 1
2478 259 1
2478 261 1
2478 262 1
2479 259 1
2479 309 1
2479 470 1
2480 259 1
2480 308 1
2480 314 1
2481 308 1
2481 309 1
2481 313 1
2482 776 1
2482 894 1
2482 1553 1
2483 259 1
2483 308 1
2483 314 1
2484 259 1
2484 308 1
2484 309 1
2485 259 1
2485 309 1
2485 313 1
2486 259 1
2486 308 1
2486 314 1
2487 259 1
2487 308 1
2487 314 1
2488 308 1
2488 309 1
2488 313 1
2489 259 1
2489 309 1
2489 313 1
2490 308 1
2490 309 1
2490 313 1
2491 179 1
2491 268 1
2491 489 1
2492 268 1
2492 358 1
2492 489 1
2493 259 1
2493 308 1
2493 314 1
2494 259 1
2494 261 1
2494 262 1
2495 259 1
2495 309 1
2495 311 1
2496 259 1
2496 309 1
2496 311 1
2497 259 1
2497 309 1
2497 313 1
2498 259 1
2498 309 1
2498 313 1
2499 268 1
2499 489 1
2499 778 1
2500 259 1
2500 308 1
2500 314 1
2501 779 1
2501 780 1
2501 781 1
2502 308 1
2502 309 1
2502 313 1
2503 259 1
2503 309 1
2503 311 1
2504 259 1
2504 308 1
2504 309 1
2505 259 1
2505 308 1
2505 314 1
2506 259 1
2506 308 1
2506 309 1
2507 259 1
2507 308 1
2507 309 1
2508 450 1
2508 456 1
2508 531 1
2509 450 1
2509 456 1
2509 531 1
2510 259 1
2510 309 1
2510 311 1
2511 308 1
2511 309 1
2511 313 1
2512 259 1
2512 261 1
2512 262 1
2513 259 1
2513 309 1
2513 311 1
2514 259 1
2514 308 1
2514 314 1
2515 268 1
2515 489 1
2515 778 1
2516 670 1
2516 776 1
2516 777 1
2517 670 1
2517 776 1
2517 777 1
2518 670 1
2518 776 1
2518 777 1
2519 670 1
2519 776 1
2519 777 1
2520 259 1
2520 260 1
2520 262 1
2521 259 1
2521 260 1
2521 262 1
2522 259 1
2522 308 1
2522 314 1
2523 259 1
2523 308 1
2523 314 1
2524 259 1
2524 308 1
2524 314 1
2525 670 1
2525 671 1
2525 776 1
2526 1020 1
2526 1021 1
2526 2204 1
2527 99 1
2527 100 1
2527 603 1
2528 99 1
2528 100 1
2528 603 1
2529 99 1
2529 100 1
2529 603 1
2530 99 1
2530 100 1
2530 603 1
2531 99 1
2531 100 1
2531 603 1
2532 99 1
2532 100 1
2532 603 1
2533 99 1
2533 100 1
2533 603 1
2534 99 1
2534 100 1
2534 603 1
2535 234 1
2535 235 1
2535 245 1
2536 234 1
2536 235 1
2536 245 1
2537 234 1
2537 244 1
2537 245 1
2538 234 1
2538 235 1
2538 245 1
2539 234 1
2539 235 1
2539 245 1
2540 259 1
2540 262 1
2540 1554 1
2541 259 1
2541 309 1
2541 310 1
2542 261 1
2542 356 1
2542 828 1
2543 259 1
2543 309 1
2543 313 1
2544 259 1
2544 309 1
2544 310 1
2545 259 1
2545 309 1
2545 310 1
2546 669 1
2546 776 1
2546 1551 1
2547 268 1
2547 489 1
2547 778 1
2548 259 1
2548 261 1
2548 262 1
2549 259 1
2549 309 1
2549 313 1
2550 669 1
2550 776 1
2550 1551 1
2551 268 1
2551 489 1
2551 778 1
2552 259 1
2552 309 1
2552 310 1
2553 268 1
2553 489 1
2553 778 1
2554 268 1
2554 489 1
2554 778 1
2555 259 1
2555 260 1
2555 262 1
2556 245 1
2556 331 1
2556 465 1
2557 245 1
2557 331 1
2557 465 1
2558 776 1
2558 777 1
2558 894 1
2559 259 1
2559 308 1
2559 314 1
2560 259 1
2560 308 1
2560 314 1
2561 670 1
2561 776 1
2561 777 1
2562 670 1
2562 776 1
2562 777 1
2563 670 1
2563 776 1
2563 777 1
2564 670 1
2564 776 1
2564 777 1
2565 670 1
2565 776 1
2565 777 1
2566 1031 1
2566 1044 1
2566 1113 1
2567 1430 1
2567 3593 1
2567 3594 1
2568 1125 1
2568 1430 1
2568 3594 1
2569 1125 1
2569 1430 1
2569 3594 1
2570 2002 1
2570 3595 1
2570 3596 1
2571 1023 1
2571 1031 1
2571 1039 1
2572 1031 1
2572 1039 1
2572 1096 1
2573 1031 1
2573 1039 1
2573 3601 1
2574 1031 1
2574 1104 1
2574 3603 1
2575 3318 1
2575 3604 1
2575 3605 1
2576 2908 1
2576 3604 1
2576 3605 1
2577 2037 1
2577 2375 1
2577 3616 1
2578 2037 1
2578 2375 1
2578 3011 1
2579 2267 1
2579 3347 1
2579 3617 1
2580 1032 1
2580 1036 1
2580 2106 1
2581 1032 1
2581 1036 1
2581 2106 1
2582 1032 1
2582 1041 1
2582 3618 1
2583 1032 1
2583 1106 1
2583 3600 1
2584 1032 1
2584 1106 1
2584 3600 1
2585 1032 1
2585 2106 1
2585 3347 1
2586 1036 1
2586 1939 1
2586 3411 1
2587 1036 1
2587 1996 1
2587 2856 1
2588 1036 1
2588 1996 1
2588 2856 1
2589 1036 1
2589 1039 1
2589 1106 1
2590 1031 1
2590 1039 1
2590 1096 1
2591 1031 1
2591 1039 1
2591 3601 1
2592 1031 1
2592 1032 1
2592 3620 1
2593 1036 1
2593 1939 1
2593 3411 1
2594 1031 1
2594 1104 1
2594 3603 1
2595 329 1
2595 1025 1
2595 1405 1
2596 1039 1
2596 1896 1
2596 2119 1
2597 1041 1
2597 1125 1
2597 3659 1
2598 1041 1
2598 1125 1
2598 3659 1
2599 2037 1
2599 3615 1
2599 3660 1
2600 2037 1
2600 3615 1
2600 3660 1
2601 1989 1
2601 2056 1
2601 3572 1
2602 1989 1
2602 2056 1
2602 3572 1
2603 1907 1
2603 2267 1
2603 3631 1
2604 1907 1
2604 2267 1
2604 3631 1
2605 1066 1
2605 1382 1
2605 3593 1
2606 1125 1
2606 1382 1
2606 2523 1
2607 1066 1
2607 1125 1
2607 1382 1
2608 1020 1
2608 1039 1
2608 1133 1
2609 1020 1
2609 1133 1
2609 2905 1
2610 2372 1
2610 2596 1
2610 3681 1
2611 1055 1
2611 3669 1
2611 3673 1
2612 1125 1
2612 3347 1
2612 3594 1
2613 1125 1
2613 3347 1
2613 3594 1
2614 1039 1
2614 2500 1
2614 3052 1
2615 952 1
2615 1020 1
2615 1133 1
2616 345 1
2616 2002 1
2616 3572 1
2617 345 1
2617 2106 1
2617 2566 1
2618 1907 1
2618 2267 1
2618 3631 1
2619 1024 1
2619 3490 1
2619 3578 1
2620 1106 1
2620 3600 1
2620 3621 1
2621 1106 1
2621 3600 1
2621 3621 1
2622 2106 1
2622 2267 1
2622 2411 1
2623 2106 1
2623 2267 1
2623 2411 1
2624 941 1
2624 3543 1
2624 3600 1
2625 345 1
2625 942 1
2625 1125 1
2626 1014 1
2626 1125 1
2626 2566 1
2627 1452 1
2627 2119 1
2627 2928 1
2628 1032 1
2628 2119 1
2628 3676 1
2629 1032 1
2629 2119 1
2629 3676 1
2630 3589 1
2630 3591 1
2630 3600 1
2631 1064 1
2631 3586 1
2631 3705 1
2632 1452 1
2632 2119 1
2632 2928 1
2633 1044 1
2633 1072 1
2633 1929 1
2634 2342 1
2634 2938 1
2634 3095 1
2635 3312 1
2635 3313 1
2635 3345 1
2636 2111 1
2636 3312 1
2636 3313 1
2637 456 1
2637 3590 1
2637 3631 1
2638 1039 1
2638 1989 1
2638 3575 1
2639 1137 1
2639 2938 1
2639 3312 1
2640 2111 1
2640 3312 1
2640 3313 1
2641 512 1
2641 1041 1
2641 2134 1
2642 1081 1
2642 2388 1
2642 3718 1
2643 968 1
2643 1918 1
2643 2397 1
2644 3347 1
2644 3580 1
2644 3583 1
2645 1097 1
2645 1918 1
2645 3731 1
2646 345 1
2646 1104 1
2646 3593 1
2647 345 1
2647 1104 1
2647 1125 1
2648 1130 1
2648 2014 1
2648 2181 1
2649 761 1
2649 1086 1
2649 2491 1
2650 1041 1
2650 1133 1
2650 1148 1
2651 1041 1
2651 1133 1
2651 1148 1
2652 3573 1
2652 3574 1
2652 3575 1
2653 3573 1
2653 3574 1
2653 3575 1
2654 3573 1
2654 3574 1
2654 3575 1
2655 3573 1
2655 3574 1
2655 3575 1
2656 2037 1
2656 3605 1
2656 3634 1
2657 2037 1
2657 3605 1
2657 3634 1
2658 1025 1
2658 1048 1
2658 3096 1
2659 1066 1
2659 2037 1
2659 2359 1
2660 2037 1
2660 2359 1
2660 2523 1
2661 2106 1
2661 2359 1
2661 3580 1
2662 2106 1
2662 2359 1
2662 3580 1
2663 345 1
2663 2359 1
2663 2609 1
2664 345 1
2664 2359 1
2664 2609 1
2665 1036 1
2665 3245 1
2665 3579 1
2666 1036 1
2666 3245 1
2666 3579 1
2667 3574 1
2667 3575 1
2667 3586 1
2668 3574 1
2668 3575 1
2668 3586 1
2669 3573 1
2669 3574 1
2669 3575 1
2670 345 1
2670 1030 1
2670 2950 1
2671 345 1
2671 1030 1
2671 2950 1
2672 1148 1
2672 2177 1
2672 3631 1
2673 1063 1
2673 2411 1
2673 3312 1
2674 1063 1
2674 2411 1
2674 3312 1
2675 1014 1
2675 1073 1
2675 3682 1
2676 1014 1
2676 1073 1
2676 3682 1
2677 1056 1
2677 1118 1
2677 3594 1
2678 1056 1
2678 1118 1
2678 3594 1
2679 1119 1
2679 1122 1
2679 1125 1
2680 1119 1
2680 1122 1
2680 1125 1
2681 1039 1
2681 1125 1
2681 2037 1
2682 1039 1
2682 1125 1
2682 2037 1
2683 1082 1
2683 1124 1
2683 3582 1
2684 345 1
2684 2359 1
2684 2609 1
2685 3574 1
2685 3575 1
2685 3586 1
2686 1082 1
2686 1124 1
2686 3582 1
2687 1024 1
2687 1939 1
2687 2106 1
2688 1039 1
2688 2037 1
2688 3593 1
2689 2106 1
2689 2119 1
2689 2267 1
2690 1025 1
2690 1132 1
2690 1618 1
2691 1080 1
2691 3573 1
2691 3764 1
2692 2106 1
2692 3631 1
2692 3739 1
2693 2037 1
2693 3332 1
2693 3605 1
2694 1031 1
2694 2037 1
2694 3332 1
2695 3334 1
2695 3411 1
2695 3717 1
2696 1138 1
2696 1918 1
2696 3582 1
2697 1138 1
2697 1918 1
2697 3582 1
2698 2119 1
2698 2267 1
2698 2523 1
2699 2119 1
2699 2267 1
2699 2523 1
2700 1104 1
2700 2267 1
2700 3411 1
2701 1023 1
2701 1039 1
2701 1113 1
2702 2037 1
2702 3332 1
2702 3605 1
2703 2177 1
2703 2748 1
2703 3411 1
2704 268 1
2704 489 1
2704 778 1
2705 244 1
2705 358 1
2705 1014 1
2706 308 1
2706 309 1
2706 313 1
2707 259 1
2707 308 1
2707 314 1
2708 259 1
2708 308 1
2708 314 1
2709 670 1
2709 776 1
2709 777 1
2710 259 1
2710 308 1
2710 314 1
2711 268 1
2711 489 1
2711 778 1
2712 307 1
2712 308 1
2712 309 1
2713 259 1
2713 308 1
2713 309 1
2714 268 1
2714 489 1
2714 778 1
2715 259 1
2715 309 1
2715 313 1
2716 221 1
2716 222 1
2716 309 1
2717 259 1
2717 308 1
2717 309 1
2718 259 1
2718 309 1
2718 314 1
2719 780 1
2719 781 1
2719 786 1
2720 450 1
2720 456 1
2720 531 1
2721 259 1
2721 261 1
2721 262 1
2722 259 1
2722 308 1
2722 314 1
2723 234 1
2723 235 1
2723 768 1
2724 456 1
2724 502 1
2724 512 1
2725 456 1
2725 502 1
2725 512 1
2726 259 1
2726 261 1
2726 262 1
2727 259 1
2727 262 1
2727 1494 1
2728 309 1
2728 783 1
2728 789 1
2729 308 1
2729 309 1
2729 313 1
2730 259 1
2730 261 1
2730 262 1
2731 259 1
2731 309 1
2731 311 1
2732 259 1
2732 308 1
2732 314 1
2733 259 1
2733 308 1
2733 309 1
2734 268 1
2734 489 1
2734 778 1
2735 308 1
2735 309 1
2735 313 1
2736 259 1
2736 309 1
2736 313 1
2737 259 1
2737 309 1
2737 311 1
2738 450 1
2738 456 1
2738 531 1
2739 259 1
2739 309 1
2739 310 1
2740 259 1
2740 308 1
2740 309 1
2741 259 1
2741 309 1
2741 313 1
2742 259 1
2742 308 1
2742 309 1
2743 259 1
2743 308 1
2743 309 1
2744 221 1
2744 222 1
2744 309 1
2745 670 1
2745 776 1
2745 777 1
2746 308 1
2746 309 1
2746 313 1
2747 268 1
2747 358 1
2747 489 1
2748 456 1
2748 502 1
2748 512 1
2749 312 1
2749 670 1
2749 1553 1
2750 259 1
2750 308 1
2750 309 1
2751 259 1
2751 308 1
2751 314 1
2752 259 1
2752 309 1
2752 311 1
2753 259 1
2753 308 1
2753 314 1
2754 259 1
2754 308 1
2754 314 1
2755 259 1
2755 308 1
2755 309 1
2756 3111 1
2756 3779 1
2756 3780 1
2757 3782 1
2757 3783 1
2757 3784 1
2758 1238 1
2758 1461 1
2758 3819 1
2759 1238 1
2759 1461 1
2759 3819 1
2760 1290 1
2760 1291 1
2760 1292 1
2761 1290 1
2761 1291 1
2761 1292 1
2762 121 1
2762 1219 1
2762 1221 1
2763 1307 1
2763 1875 1
2763 2495 1
2764 1307 1
2764 1875 1
2764 2495 1
2765 1239 1
2765 1345 1
2765 1475 1
2766 1239 1
2766 1345 1
2766 1475 1
2767 1243 1
2767 1351 1
2767 2802 1
2768 1245 1
2768 1246 1
2768 1352 1
2769 1358 1
2769 2810 1
2769 2812 1
2770 147 1
2770 1255 1
2770 1256 1
2771 1270 1
2771 1271 1
2771 1287 1
2772 1295 1
2772 1371 1
2772 3846 1
2773 1221 1
2773 1235 1
2773 1236 1
2774 1330 1
2774 1371 1
2774 3846 1
2775 1218 1
2775 1246 1
2775 1371 1
2776 1270 1
2776 1296 1
2776 1309 1
2777 1271 1
2777 1303 1
2777 1309 1
2778 121 1
2778 1352 1
2778 1371 1
2779 920 1
2779 2356 1
2779 2371 1
2780 213 1
2780 1082 1
2780 1128 1
2781 1102 1
2781 2322 1
2781 3340 1
2782 395 1
2782 1036 1
2782 3192 1
2783 1102 1
2783 2322 1
2783 3217 1
2784 450 1
2784 456 1
2784 531 1
2785 456 1
2785 502 1
2785 512 1
2786 456 1
2786 502 1
2786 512 1
2787 268 1
2787 489 1
2787 778 1
2788 456 1
2788 502 1
2788 512 1
2789 259 1
2789 308 1
2789 314 1
2790 308 1
2790 309 1
2790 313 1
2791 232 1
2791 484 1
2791 485 1
2792 259 1
2792 309 1
2792 313 1
2793 465 1
2793 1083 1
2793 1622 1
2794 259 1
2794 308 1
2794 309 1
2795 456 1
2795 502 1
2795 512 1
2796 259 1
2796 308 1
2796 314 1
2797 221 1
2797 222 1
2797 309 1
2798 456 1
2798 502 1
2798 512 1
2799 456 1
2799 502 1
2799 512 1
2800 309 1
2800 783 1
2800 789 1
2801 776 1
2801 894 1
2801 1553 1
2802 450 1
2802 456 1
2802 531 1
2803 259 1
2803 261 1
2803 262 1
2804 779 1
2804 780 1
2804 781 1
2805 268 1
2805 358 1
2805 489 1
2806 259 1
2806 261 1
2806 262 1
2807 308 1
2807 309 1
2807 313 1
2808 259 1
2808 308 1
2808 309 1
2809 259 1
2809 308 1
2809 314 1
2810 259 1
2810 308 1
2810 314 1
2811 259 1
2811 308 1
2811 314 1
2812 456 1
2812 502 1
2812 512 1
2813 259 1
2813 308 1
2813 309 1
2814 307 1
2814 308 1
2814 309 1
2815 259 1
2815 309 1
2815 310 1
2816 259 1
2816 308 1
2816 309 1
2817 670 1
2817 776 1
2817 777 1
2818 259 1
2818 308 1
2818 314 1
2819 235 1
2819 246 1
2819 768 1
2820 235 1
2820 246 1
2820 768 1
2821 235 1
2821 246 1
2821 768 1
2822 235 1
2822 246 1
2822 768 1
2823 234 1
2823 235 1
2823 245 1
2824 234 1
2824 244 1
2824 245 1
2825 234 1
2825 244 1
2825 245 1
2826 234 1
2826 244 1
2826 245 1
2827 234 1
2827 244 1
2827 245 1
2828 234 1
2828 244 1
2828 245 1
2829 234 1
2829 244 1
2829 245 1
2830 234 1
2830 244 1
2830 245 1
2831 234 1
2831 244 1
2831 245 1
2832 234 1
2832 244 1
2832 245 1
2833 222 1
2833 804 1
2833 1179 1
2834 259 1
2834 262 1
2834 1494 1
2835 259 1
2835 261 1
2835 262 1
2836 234 1
2836 235 1
2836 768 1
2837 234 1
2837 244 1
2837 245 1
2838 234 1
2838 235 1
2838 245 1
2839 234 1
2839 235 1
2839 245 1
2840 235 1
2840 250 1
2840 768 1
2841 234 1
2841 235 1
2841 245 1
2842 234 1
2842 235 1
2842 245 1
2843 234 1
2843 235 1
2843 245 1
2844 234 1
2844 244 1
2844 245 1
2845 235 1
2845 246 1
2845 768 1
2846 235 1
2846 236 1
2846 768 1
2847 234 1
2847 235 1
2847 768 1
2848 235 1
2848 250 1
2848 768 1
2849 234 1
2849 235 1
2849 245 1
2850 234 1
2850 235 1
2850 245 1
2851 234 1
2851 235 1
2851 245 1
2852 234 1
2852 244 1
2852 245 1
2853 235 1
2853 246 1
2853 768 1
2854 235 1
2854 236 1
2854 768 1
2855 235 1
2855 236 1
2855 768 1
2856 234 1
2856 244 1
2856 245 1
2857 234 1
2857 235 1
2857 245 1
2858 234 1
2858 235 1
2858 245 1
2859 235 1
2859 246 1
2859 768 1
2860 670 1
2860 776 1
2860 1169 1
2861 670 1
2861 776 1
2861 1169 1
2862 670 1
2862 776 1
2862 1169 1
2863 456 1
2863 502 1
2863 512 1
2864 308 1
2864 309 1
2864 313 1
2865 259 1
2865 308 1
2865 309 1
2866 259 1
2866 308 1
2866 309 1
2867 259 1
2867 308 1
2867 310 1
2868 259 1
2868 308 1
2868 309 1
2869 307 1
2869 308 1
2869 309 1
2870 259 1
2870 309 1
2870 313 1
2871 259 1
2871 308 1
2871 314 1
2872 259 1
2872 308 1
2872 314 1
2873 259 1
2873 308 1
2873 314 1
2874 259 1
2874 308 1
2874 314 1
2875 308 1
2875 309 1
2875 313 1
2876 259 1
2876 308 1
2876 309 1
2877 259 1
2877 308 1
2877 314 1
2878 259 1
2878 309 1
2878 311 1
2879 2102 1
2879 3900 1
2879 3901 1
2880 2102 1
2880 3900 1
2880 3901 1
2881 2102 1
2881 2138 1
2881 3901 1
2882 2102 1
2882 2138 1
2882 3901 1
2883 259 1
2883 261 1
2883 262 1
2884 780 1
2884 781 1
2884 786 1
2885 456 1
2885 502 1
2885 512 1
2886 356 1
2886 450 1
2886 3902 1
2887 356 1
2887 450 1
2887 3902 1
2888 1217 1
2888 1473 1
2888 2790 1
2889 1357 1
2889 1358 1
2889 2812 1
2890 1265 1
2890 1266 1
2890 1368 1
2891 776 1
2891 1553 1
2891 2584 1
2892 268 1
2892 489 1
2892 778 1
2893 234 1
2893 235 1
2893 236 1
2894 234 1
2894 235 1
2894 236 1
2895 739 1
2895 740 1
2895 741 1
2896 739 1
2896 740 1
2896 3931 1
2897 261 1
2897 262 1
2897 2852 1
2898 259 1
2898 308 1
2898 314 1
2899 179 1
2899 268 1
2899 489 1
2900 259 1
2900 308 1
2900 314 1
2901 670 1
2901 776 1
2901 777 1
2902 450 1
2902 456 1
2902 531 1
2903 259 1
2903 308 1
2903 309 1
2904 268 1
2904 358 1
2904 489 1
2905 259 1
2905 261 1
2905 262 1
2906 221 1
2906 222 1
2906 309 1
2907 268 1
2907 489 1
2907 778 1
2908 259 1
2908 261 1
2908 262 1
2909 308 1
2909 309 1
2909 313 1
2910 779 1
2910 780 1
2910 781 1
2911 308 1
2911 309 1
2911 313 1
2912 450 1
2912 456 1
2912 531 1
2913 259 1
2913 308 1
2913 314 1
2914 259 1
2914 261 1
2914 262 1
2915 309 1
2915 783 1
2915 789 1
2916 259 1
2916 261 1
2916 262 1
2917 259 1
2917 308 1
2917 314 1
2918 259 1
2918 308 1
2918 309 1
2919 259 1
2919 308 1
2919 314 1
2920 456 1
2920 502 1
2920 512 1
2921 308 1
2921 309 1
2921 313 1
2922 450 1
2922 456 1
2922 531 1
2923 259 1
2923 308 1
2923 309 1
2924 221 1
2924 222 1
2924 309 1
2925 235 1
2925 246 1
2925 768 1
2926 450 1
2926 456 1
2926 531 1
2927 235 1
2927 246 1
2927 768 1
2928 259 1
2928 308 1
2928 309 1
2929 259 1
2929 309 1
2929 313 1
2930 259 1
2930 309 1
2930 313 1
2931 268 1
2931 358 1
2931 489 1
2932 259 1
2932 309 1
2932 313 1
2933 259 1
2933 308 1
2933 314 1
2934 259 1
2934 308 1
2934 314 1
2935 259 1
2935 309 1
2935 311 1
2936 307 1
2936 308 1
2936 309 1
2937 259 1
2937 308 1
2937 314 1
2938 259 1
2938 309 1
2938 313 1
2939 308 1
2939 309 1
2939 313 1
2940 232 1
2940 1647 1
2940 3417 1
2941 221 1
2941 222 1
2941 309 1
2942 259 1
2942 309 1
2942 313 1
2943 308 1
2943 309 1
2943 313 1
2944 259 1
2944 261 1
2944 262 1
2945 268 1
2945 489 1
2945 778 1
2946 259 1
2946 308 1
2946 314 1
2947 221 1
2947 222 1
2947 309 1
2948 450 1
2948 456 1
2948 531 1
2949 259 1
2949 309 1
2949 313 1
2950 259 1
2950 309 1
2950 311 1
2951 259 1
2951 309 1
2951 313 1
2952 259 1
2952 308 1
2952 309 1
2953 259 1
2953 309 1
2953 311 1
2954 780 1
2954 781 1
2954 786 1
2955 259 1
2955 309 1
2955 310 1
2956 234 1
2956 236 1
2956 245 1
2957 234 1
2957 236 1
2957 245 1
2958 234 1
2958 236 1
2958 245 1
2959 234 1
2959 236 1
2959 245 1
2960 234 1
2960 236 1
2960 245 1
2961 234 1
2961 236 1
2961 245 1
2962 234 1
2962 245 1
2962 768 1
2963 234 1
2963 236 1
2963 245 1
2964 234 1
2964 236 1
2964 245 1
2965 234 1
2965 236 1
2965 502 1
2966 670 1
2966 777 1
2966 2296 1
2967 356 1
2967 512 1
2967 844 1
2968 670 1
2968 777 1
2968 2296 1
2969 670 1
2969 777 1
2969 2296 1
2970 670 1
2970 777 1
2970 2296 1
2971 670 1
2971 777 1
2971 2296 1
2972 259 1
2972 308 1
2972 310 1
2973 308 1
2973 309 1
2973 313 1
2974 456 1
2974 502 1
2974 3943 1
2975 87 1
2975 256 1
2975 409 1
2976 87 1
2976 256 1
2976 409 1
2977 87 1
2977 256 1
2977 409 1
2978 87 1
2978 256 1
2978 409 1
2979 87 1
2979 256 1
2979 409 1
2980 87 1
2980 409 1
2980 731 1
2981 87 1
2981 409 1
2981 731 1
2982 87 1
2982 409 1
2982 731 1
2983 87 1
2983 409 1
2983 731 1
2984 87 1
2984 409 1
2984 731 1
2985 776 1
2985 777 1
2985 894 1
2986 670 1
2986 776 1
2986 777 1
2987 670 1
2987 776 1
2987 777 1
2988 670 1
2988 776 1
2988 777 1
2989 308 1
2989 309 1
2989 310 1
2990 308 1
2990 309 1
2990 310 1
2991 308 1
2991 309 1
2991 313 1
2992 308 1
2992 309 1
2992 310 1
2993 309 1
2993 313 1
2993 1943 1
2994 308 1
2994 309 1
2994 313 1
2995 308 1
2995 309 1
2995 313 1
2996 246 1
2996 768 1
2996 3953 1
2997 235 1
2997 246 1
2997 768 1
2998 235 1
2998 246 1
2998 768 1
2999 235 1
2999 246 1
2999 768 1
3000 235 1
3000 246 1
3000 768 1
3001 235 1
3001 246 1
3001 768 1
3002 235 1
3002 246 1
3002 768 1
3003 235 1
3003 246 1
3003 768 1
3004 235 1
3004 246 1
3004 768 1
3005 235 1
3005 246 1
3005 768 1
3006 235 1
3006 246 1
3006 768 1
3007 235 1
3007 246 1
3007 768 1
3008 235 1
3008 246 1
3008 768 1
3009 235 1
3009 246 1
3009 768 1
3010 235 1
3010 246 1
3010 768 1
3011 235 1
3011 246 1
3011 768 1
3012 235 1
3012 246 1
3012 768 1
3013 235 1
3013 246 1
3013 768 1
3014 235 1
3014 246 1
3014 768 1
3015 234 1
3015 235 1
3015 246 1
3016 234 1
3016 235 1
3016 236 1
3017 235 1
3017 246 1
3017 768 1
3018 235 1
3018 246 1
3018 768 1
3019 235 1
3019 246 1
3019 768 1
3020 234 1
3020 235 1
3020 768 1
3021 235 1
3021 246 1
3021 768 1
3022 235 1
3022 246 1
3022 768 1
3023 235 1
3023 246 1
3023 768 1
3024 235 1
3024 246 1
3024 768 1
3025 235 1
3025 246 1
3025 768 1
3026 235 1
3026 246 1
3026 768 1
3027 234 1
3027 246 1
3027 768 1
3028 235 1
3028 246 1
3028 768 1
3029 235 1
3029 246 1
3029 768 1
3030 235 1
3030 246 1
3030 768 1
3031 235 1
3031 246 1
3031 768 1
3032 235 1
3032 246 1
3032 768 1
3033 235 1
3033 246 1
3033 768 1
3034 235 1
3034 246 1
3034 768 1
3035 235 1
3035 246 1
3035 768 1
3036 235 1
3036 246 1
3036 768 1
3037 670 1
3037 776 1
3037 777 1
3038 670 1
3038 776 1
3038 777 1
3039 1837 1
3039 1840 1
3039 1841 1
3040 776 1
3040 777 1
3040 894 1
3041 670 1
3041 776 1
3041 777 1
3042 234 1
3042 235 1
3042 768 1
3043 260 1
3043 261 1
3043 262 1
3044 233 1
3044 268 1
3044 489 1
3045 259 1
3045 260 1
3045 262 1
3046 179 1
3046 268 1
3046 489 1
3047 268 1
3047 489 1
3047 778 1
3048 171 1
3048 1805 1
3048 2614 1
3049 171 1
3049 268 1
3049 489 1
3050 234 1
3050 236 1
3050 1563 1
3051 234 1
3051 236 1
3051 1563 1
3052 234 1
3052 236 1
3052 1563 1
3053 234 1
3053 236 1
3053 1563 1
3054 234 1
3054 236 1
3054 1563 1
3055 234 1
3055 236 1
3055 1563 1
3056 234 1
3056 236 1
3056 1563 1
3057 234 1
3057 236 1
3057 1563 1
3058 234 1
3058 236 1
3058 1563 1
3059 234 1
3059 236 1
3059 1563 1
3060 234 1
3060 236 1
3060 1563 1
3061 234 1
3061 236 1
3061 1563 1
3062 234 1
3062 236 1
3062 1563 1
3063 234 1
3063 236 1
3063 1563 1
3064 234 1
3064 236 1
3064 1563 1
3065 234 1
3065 236 1
3065 1563 1
3066 234 1
3066 236 1
3066 1563 1
3067 234 1
3067 236 1
3067 1563 1
3068 234 1
3068 236 1
3068 1563 1
3069 234 1
3069 236 1
3069 1563 1
3070 234 1
3070 236 1
3070 1563 1
3071 234 1
3071 236 1
3071 1563 1
3072 234 1
3072 236 1
3072 1563 1
3073 234 1
3073 236 1
3073 1563 1
3074 308 1
3074 309 1
3074 313 1
3075 308 1
3075 309 1
3075 313 1
3076 236 1
3076 246 1
3076 768 1
3077 259 1
3077 261 1
3077 262 1
3078 259 1
3078 308 1
3078 309 1
3079 259 1
3079 308 1
3079 314 1
3080 308 1
3080 309 1
3080 313 1
3081 308 1
3081 309 1
3081 313 1
3082 308 1
3082 309 1
3082 313 1
3083 308 1
3083 309 1
3083 313 1
3084 259 1
3084 308 1
3084 314 1
3085 259 1
3085 308 1
3085 309 1
3086 234 1
3086 236 1
3086 768 1
3087 261 1
3087 310 1
3087 1490 1
3088 261 1
3088 356 1
3088 822 1
3089 261 1
3089 356 1
3089 828 1
3090 261 1
3090 356 1
3090 828 1
3091 261 1
3091 310 1
3091 1490 1
3092 776 1
3092 777 1
3092 2108 1
3093 259 1
3093 261 1
3093 262 1
3094 259 1
3094 260 1
3094 262 1
3095 259 1
3095 308 1
3095 314 1
3096 268 1
3096 489 1
3096 778 1
3097 259 1
3097 309 1
3097 310 1
3098 243 1
3098 776 1
3098 2855 1
3099 268 1
3099 489 1
3099 778 1
3100 263 1
3100 309 1
3100 820 1
3101 234 1
3101 244 1
3101 1555 1
3102 234 1
3102 236 1
3102 768 1
3103 234 1
3103 236 1
3103 768 1
3104 236 1
3104 246 1
3104 768 1
3105 2306 1
3105 3538 1
3105 4008 1
3106 259 1
3106 309 1
3106 310 1
3107 259 1
3107 261 1
3107 262 1
3108 259 1
3108 309 1
3108 313 1
3109 234 1
3109 244 1
3109 245 1
3110 234 1
3110 244 1
3110 245 1
3111 776 1
3111 777 1
3111 1569 1
3112 171 1
3112 268 1
3112 489 1
3113 171 1
3113 268 1
3113 489 1
3114 233 1
3114 268 1
3114 489 1
3115 259 1
3115 260 1
3115 262 1
3116 259 1
3116 260 1
3116 262 1
3117 776 1
3117 777 1
3117 1569 1
3118 776 1
3118 777 1
3118 1569 1
3119 776 1
3119 777 1
3119 1569 1
3120 670 1
3120 776 1
3120 1553 1
3121 265 1
3121 266 1
3121 267 1
3122 265 1
3122 266 1
3122 267 1
3123 265 1
3123 266 1
3123 267 1
3124 265 1
3124 266 1
3124 267 1
3125 265 1
3125 266 1
3125 267 1
3126 776 1
3126 777 1
3126 1569 1
3127 259 1
3127 308 1
3127 310 1
3128 259 1
3128 309 1
3128 313 1
3129 259 1
3129 308 1
3129 309 1
3130 259 1
3130 308 1
3130 309 1
3131 259 1
3131 308 1
3131 309 1
3132 259 1
3132 309 1
3132 313 1
3133 259 1
3133 309 1
3133 313 1
3134 259 1
3134 308 1
3134 309 1
3135 308 1
3135 309 1
3135 313 1
3136 259 1
3136 308 1
3136 314 1
3137 259 1
3137 308 1
3137 314 1
3138 259 1
3138 308 1
3138 314 1
3139 268 1
3139 489 1
3139 778 1
3140 309 1
3140 783 1
3140 789 1
3141 309 1
3141 783 1
3141 789 1
3142 259 1
3142 309 1
3142 313 1
3143 268 1
3143 358 1
3143 489 1
3144 259 1
3144 309 1
3144 314 1
3145 259 1
3145 309 1
3145 313 1
3146 259 1
3146 308 1
3146 309 1
3147 259 1
3147 262 1
3147 1494 1
3148 259 1
3148 261 1
3148 262 1
3149 259 1
3149 261 1
3149 262 1
3150 259 1
3150 308 1
3150 309 1
3151 308 1
3151 309 1
3151 313 1
3152 259 1
3152 308 1
3152 309 1
3153 259 1
3153 308 1
3153 309 1
3154 259 1
3154 309 1
3154 311 1
3155 259 1
3155 308 1
3155 314 1
3156 259 1
3156 261 1
3156 262 1
3157 259 1
3157 309 1
3157 313 1
3158 259 1
3158 308 1
3158 309 1
3159 259 1
3159 309 1
3159 313 1
3160 776 1
3160 777 1
3160 894 1
3161 776 1
3161 777 1
3161 894 1
3162 776 1
3162 777 1
3162 894 1
3163 268 1
3163 489 1
3163 778 1
3164 308 1
3164 309 1
3164 313 1
3165 308 1
3165 309 1
3165 313 1
3166 259 1
3166 261 1
3166 262 1
3167 259 1
3167 261 1
3167 262 1
3168 259 1
3168 262 1
3168 1494 1
3169 259 1
3169 309 1
3169 310 1
3170 259 1
3170 308 1
3170 309 1
3171 259 1
3171 309 1
3171 313 1
3172 259 1
3172 308 1
3172 309 1
3173 259 1
3173 308 1
3173 314 1
3174 259 1
3174 1494 1
3174 1495 1
3175 259 1
3175 262 1
3175 1494 1
3176 920 1
3176 2938 1
3176 3317 1
3177 920 1
3177 2356 1
3177 2371 1
3178 920 1
3178 2356 1
3178 2371 1
3179 1052 1
3179 1124 1
3179 1148 1
3180 1532 1
3180 2017 1
3180 4045 1
3181 920 1
3181 2356 1
3181 2371 1
3182 920 1
3182 2356 1
3182 2371 1
3183 776 1
3183 777 1
3183 894 1
3184 234 1
3184 236 1
3184 768 1
3185 234 1
3185 236 1
3185 768 1
3186 263 1
3186 663 1
3186 2284 1
3187 308 1
3187 313 1
3187 663 1
3188 308 1
3188 309 1
3188 4057 1
3189 263 1
3189 663 1
3189 1548 1
3190 308 1
3190 309 1
3190 313 1
3191 263 1
3191 307 1
3191 309 1
3192 308 1
3192 309 1
3192 313 1
3193 308 1
3193 309 1
3193 313 1
3194 307 1
3194 308 1
3194 309 1
3195 308 1
3195 309 1
3195 1933 1
3196 259 1
3196 308 1
3196 309 1
3197 259 1
3197 308 1
3197 314 1
3198 259 1
3198 308 1
3198 309 1
3199 259 1
3199 308 1
3199 314 1
3200 259 1
3200 308 1
3200 309 1
3201 259 1
3201 308 1
3201 309 1
3202 259 1
3202 308 1
3202 314 1
3203 259 1
3203 309 1
3203 314 1
3204 259 1
3204 309 1
3204 314 1
3205 259 1
3205 308 1
3205 309 1
3206 259 1
3206 308 1
3206 309 1
3207 259 1
3207 308 1
3207 314 1
3208 259 1
3208 309 1
3208 314 1
3209 259 1
3209 308 1
3209 309 1
3210 259 1
3210 308 1
3210 309 1
3211 776 1
3211 894 1
3211 1617 1
3212 234 1
3212 235 1
3212 236 1
3213 234 1
3213 235 1
3213 236 1
3214 234 1
3214 235 1
3214 236 1
3215 234 1
3215 235 1
3215 236 1
3216 234 1
3216 235 1
3216 236 1
3217 234 1
3217 235 1
3217 236 1
3218 234 1
3218 235 1
3218 236 1
3219 234 1
3219 235 1
3219 236 1
3220 234 1
3220 235 1
3220 236 1
3221 234 1
3221 235 1
3221 236 1
3222 234 1
3222 235 1
3222 236 1
3223 234 1
3223 235 1
3223 236 1
3224 234 1
3224 236 1
3224 245 1
3225 1546 1
3225 2050 1
3225 4059 1
3226 268 1
3226 489 1
3226 778 1
3227 221 1
3227 222 1
3227 309 1
3228 776 1
3228 894 1
3228 4060 1
3229 268 1
3229 489 1
3229 778 1
3230 670 1
3230 776 1
3230 777 1
3231 268 1
3231 489 1
3231 778 1
3232 268 1
3232 358 1
3232 489 1
3233 235 1
3233 246 1
3233 768 1
3234 80 1
3234 344 1
3234 1786 1
3235 1789 1
3235 3433 1
3235 4064 1
3236 243 1
3236 319 1
3236 776 1
3237 243 1
3237 776 1
3237 2629 1
3238 243 1
3238 776 1
3238 2629 1
3239 243 1
3239 776 1
3239 2629 1
3240 243 1
3240 776 1
3240 2629 1
3241 259 1
3241 1999 1
3241 2677 1
3242 234 1
3242 235 1
3242 244 1
3243 234 1
3243 235 1
3243 236 1
3244 179 1
3244 1805 1
3244 2614 1
3245 234 1
3245 235 1
3245 245 1
3246 234 1
3246 244 1
3246 245 1
3247 234 1
3247 244 1
3247 245 1
3248 234 1
3248 244 1
3248 245 1
3249 234 1
3249 244 1
3249 245 1
3250 234 1
3250 244 1
3250 245 1
3251 234 1
3251 244 1
3251 245 1
3252 234 1
3252 244 1
3252 245 1
3253 234 1
3253 244 1
3253 245 1
3254 234 1
3254 235 1
3254 245 1
3255 234 1
3255 235 1
3255 245 1
3256 234 1
3256 235 1
3256 245 1
3257 234 1
3257 244 1
3257 245 1
3258 234 1
3258 244 1
3258 245 1
3259 234 1
3259 244 1
3259 245 1
3260 234 1
3260 235 1
3260 245 1
3261 234 1
3261 244 1
3261 245 1
3262 234 1
3262 235 1
3262 245 1
3263 234 1
3263 235 1
3263 245 1
3264 234 1
3264 244 1
3264 245 1
3265 234 1
3265 244 1
3265 245 1
3266 234 1
3266 244 1
3266 245 1
3267 234 1
3267 244 1
3267 245 1
3268 234 1
3268 244 1
3268 245 1
3269 234 1
3269 244 1
3269 245 1
3270 234 1
3270 244 1
3270 245 1
3271 234 1
3271 244 1
3271 245 1
3272 234 1
3272 244 1
3272 245 1
3273 234 1
3273 244 1
3273 245 1
3274 234 1
3274 244 1
3274 245 1
3275 234 1
3275 244 1
3275 245 1
3276 234 1
3276 244 1
3276 245 1
3277 234 1
3277 244 1
3277 245 1
3278 234 1
3278 244 1
3278 245 1
3279 234 1
3279 244 1
3279 245 1
3280 234 1
3280 244 1
3280 245 1
3281 234 1
3281 244 1
3281 245 1
3282 234 1
3282 244 1
3282 245 1
3283 234 1
3283 244 1
3283 245 1
3284 234 1
3284 244 1
3284 245 1
3285 234 1
3285 244 1
3285 245 1
3286 234 1
3286 244 1
3286 245 1
3287 234 1
3287 244 1
3287 245 1
3288 234 1
3288 235 1
3288 245 1
3289 234 1
3289 244 1
3289 245 1
3290 234 1
3290 235 1
3290 245 1
3291 234 1
3291 245 1
3291 768 1
3292 234 1
3292 244 1
3292 245 1
3293 234 1
3293 244 1
3293 245 1
3294 234 1
3294 244 1
3294 245 1
3295 234 1
3295 244 1
3295 245 1
3296 234 1
3296 244 1
3296 245 1
3297 234 1
3297 244 1
3297 245 1
3298 234 1
3298 244 1
3298 245 1
3299 234 1
3299 244 1
3299 245 1
3300 234 1
3300 244 1
3300 245 1
3301 234 1
3301 235 1
3301 245 1
3302 234 1
3302 235 1
3302 245 1
3303 234 1
3303 235 1
3303 1555 1
3304 234 1
3304 235 1
3304 250 1
3305 234 1
3305 235 1
3305 245 1
3306 234 1
3306 235 1
3306 245 1
3307 234 1
3307 235 1
3307 245 1
3308 234 1
3308 244 1
3308 245 1
3309 234 1
3309 244 1
3309 245 1
3310 234 1
3310 244 1
3310 245 1
3311 234 1
3311 244 1
3311 245 1
3312 234 1
3312 235 1
3312 245 1
3313 234 1
3313 244 1
3313 245 1
3314 234 1
3314 244 1
3314 245 1
3315 234 1
3315 235 1
3315 245 1
3316 234 1
3316 235 1
3316 245 1
3317 234 1
3317 235 1
3317 245 1
3318 234 1
3318 244 1
3318 245 1
3319 234 1
3319 244 1
3319 245 1
3320 234 1
3320 244 1
3320 245 1
3321 234 1
3321 244 1
3321 245 1
3322 234 1
3322 244 1
3322 245 1
3323 234 1
3323 244 1
3323 245 1
3324 234 1
3324 235 1
3324 250 1
3325 234 1
3325 244 1
3325 245 1
3326 234 1
3326 244 1
3326 245 1
3327 234 1
3327 244 1
3327 245 1
3328 234 1
3328 244 1
3328 245 1
3329 234 1
3329 244 1
3329 245 1
3330 234 1
3330 235 1
3330 245 1
3331 234 1
3331 235 1
3331 245 1
3332 234 1
3332 244 1
3332 245 1
3333 234 1
3333 244 1
3333 245 1
3334 234 1
3334 244 1
3334 245 1
3335 234 1
3335 244 1
3335 245 1
3336 234 1
3336 245 1
3336 246 1
3337 234 1
3337 235 1
3337 244 1
3338 234 1
3338 244 1
3338 245 1
3339 234 1
3339 235 1
3339 245 1
3340 234 1
3340 244 1
3340 245 1
3341 234 1
3341 244 1
3341 245 1
3342 234 1
3342 244 1
3342 245 1
3343 234 1
3343 244 1
3343 245 1
3344 234 1
3344 244 1
3344 245 1
3345 234 1
3345 235 1
3345 245 1
3346 234 1
3346 235 1
3346 245 1
3347 234 1
3347 244 1
3347 245 1
3348 234 1
3348 244 1
3348 245 1
3349 776 1
3349 777 1
3349 894 1
3350 776 1
3350 777 1
3350 894 1
3351 259 1
3351 262 1
3351 310 1
3352 776 1
3352 777 1
3352 894 1
3353 776 1
3353 777 1
3353 894 1
3354 776 1
3354 777 1
3354 894 1
3355 776 1
3355 777 1
3355 894 1
3356 776 1
3356 777 1
3356 894 1
3357 776 1
3357 777 1
3357 894 1
3358 776 1
3358 777 1
3358 894 1
3359 776 1
3359 777 1
3359 894 1
3360 776 1
3360 777 1
3360 894 1
3361 776 1
3361 777 1
3361 894 1
3362 776 1
3362 777 1
3362 894 1
3363 776 1
3363 777 1
3363 894 1
3364 776 1
3364 777 1
3364 894 1
3365 234 1
3365 235 1
3365 245 1
3366 234 1
3366 235 1
3366 245 1
3367 234 1
3367 235 1
3367 245 1
3368 234 1
3368 235 1
3368 245 1
3369 234 1
3369 235 1
3369 245 1
3370 234 1
3370 235 1
3370 245 1
3371 234 1
3371 235 1
3371 245 1
3372 234 1
3372 244 1
3372 245 1
3373 234 1
3373 244 1
3373 245 1
3374 234 1
3374 236 1
3374 245 1
3375 234 1
3375 236 1
3375 245 1
3376 234 1
3376 236 1
3376 245 1
3377 234 1
3377 236 1
3377 245 1
3378 234 1
3378 236 1
3378 245 1
3379 234 1
3379 244 1
3379 245 1
3380 234 1
3380 244 1
3380 245 1
3381 234 1
3381 244 1
3381 245 1
3382 234 1
3382 244 1
3382 245 1
3383 234 1
3383 244 1
3383 245 1
3384 234 1
3384 244 1
3384 245 1
3385 235 1
3385 246 1
3385 768 1
3386 235 1
3386 246 1
3386 768 1
3387 235 1
3387 246 1
3387 768 1
3388 234 1
3388 235 1
3388 768 1
3389 234 1
3389 235 1
3389 768 1
3390 234 1
3390 235 1
3390 768 1
3391 234 1
3391 235 1
3391 768 1
3392 234 1
3392 235 1
3392 768 1
3393 234 1
3393 235 1
3393 768 1
3394 234 1
3394 246 1
3394 768 1
3395 234 1
3395 246 1
3395 768 1
3396 234 1
3396 246 1
3396 768 1
3397 234 1
3397 246 1
3397 768 1
3398 234 1
3398 246 1
3398 768 1
3399 234 1
3399 246 1
3399 768 1
3400 1032 1
3400 1907 1
3400 2388 1
3401 1893 1
3401 1894 1
3401 3740 1
3402 1048 1
3402 1125 1
3402 2126 1
3403 1073 1
3403 1081 1
3403 1571 1
3404 213 1
3404 1048 1
3404 1136 1
3405 213 1
3405 1048 1
3405 1136 1
3406 213 1
3406 1048 1
3406 4072 1
3407 1048 1
3407 1105 1
3407 4072 1
3408 213 1
3408 1094 1
3408 1136 1
3409 1048 1
3409 1081 1
3409 1125 1
3410 1048 1
3410 1073 1
3410 1125 1
3411 1048 1
3411 1125 1
3411 1894 1
3412 213 1
3412 1048 1
3412 1081 1
3413 213 1
3413 1048 1
3413 1081 1
3414 1048 1
3414 1105 1
3414 1136 1
3415 1048 1
3415 1105 1
3415 1136 1
3416 1048 1
3416 1105 1
3416 1136 1
3417 1021 1
3417 1081 1
3417 1125 1
3418 1085 1
3418 1125 1
3418 4073 1
3419 213 1
3419 1125 1
3419 2595 1
3420 1125 1
3420 2138 1
3420 4071 1
3421 213 1
3421 1125 1
3421 2138 1
3422 234 1
3422 235 1
3422 236 1
3423 234 1
3423 235 1
3423 236 1
3424 234 1
3424 235 1
3424 244 1
3425 268 1
3425 489 1
3425 778 1
3426 243 1
3426 247 1
3426 942 1
3427 776 1
3427 894 1
3427 1553 1
3428 259 1
3428 309 1
3428 310 1
3429 259 1
3429 309 1
3429 310 1
3430 259 1
3430 309 1
3430 310 1
3431 234 1
3431 235 1
3431 244 1
3432 235 1
3432 246 1
3432 768 1
3433 234 1
3433 244 1
3433 245 1
3434 234 1
3434 244 1
3434 245 1
3435 234 1
3435 244 1
3435 245 1
3436 234 1
3436 244 1
3436 245 1
3437 234 1
3437 244 1
3437 245 1
3438 234 1
3438 244 1
3438 245 1
3439 234 1
3439 244 1
3439 245 1
3440 234 1
3440 244 1
3440 245 1
3441 234 1
3441 244 1
3441 1555 1
3442 234 1
3442 244 1
3442 245 1
3443 234 1
3443 244 1
3443 245 1
3444 234 1
3444 235 1
3444 244 1
3445 234 1
3445 244 1
3445 245 1
3446 234 1
3446 244 1
3446 245 1
3447 234 1
3447 244 1
3447 245 1
3448 234 1
3448 244 1
3448 245 1
3449 234 1
3449 244 1
3449 245 1
3450 234 1
3450 244 1
3450 245 1
3451 234 1
3451 244 1
3451 245 1
3452 234 1
3452 244 1
3452 245 1
3453 234 1
3453 244 1
3453 245 1
3454 234 1
3454 244 1
3454 245 1
3455 234 1
3455 244 1
3455 245 1
3456 234 1
3456 244 1
3456 245 1
3457 234 1
3457 244 1
3457 245 1
3458 234 1
3458 244 1
3458 245 1
3459 234 1
3459 244 1
3459 245 1
3460 234 1
3460 244 1
3460 245 1
3461 234 1
3461 244 1
3461 245 1
3462 234 1
3462 244 1
3462 245 1
3463 234 1
3463 244 1
3463 245 1
3464 234 1
3464 244 1
3464 245 1
3465 234 1
3465 244 1
3465 245 1
3466 244 1
3466 245 1
3466 1555 1
3467 234 1
3467 244 1
3467 245 1
3468 234 1
3468 244 1
3468 245 1
3469 244 1
3469 245 1
3469 1555 1
3470 234 1
3470 244 1
3470 245 1
3471 234 1
3471 244 1
3471 245 1
3472 234 1
3472 244 1
3472 245 1
3473 234 1
3473 244 1
3473 245 1
3474 234 1
3474 244 1
3474 245 1
3475 234 1
3475 244 1
3475 245 1
3476 234 1
3476 244 1
3476 245 1
3477 234 1
3477 236 1
3477 250 1
3478 234 1
3478 236 1
3478 250 1
3479 234 1
3479 236 1
3479 250 1
3480 234 1
3480 236 1
3480 250 1
3481 234 1
3481 244 1
3481 245 1
3482 234 1
3482 236 1
3482 250 1
3483 234 1
3483 236 1
3483 244 1
3484 234 1
3484 246 1
3484 768 1
3485 259 1
3485 261 1
3485 262 1
3486 234 1
3486 244 1
3486 245 1
3487 234 1
3487 244 1
3487 245 1
3488 234 1
3488 244 1
3488 245 1
3489 245 1
3489 319 1
3489 1647 1
3490 234 1
3490 235 1
3490 250 1
3491 776 1
3491 894 1
3491 1553 1
3492 234 1
3492 235 1
3492 768 1
3493 234 1
3493 235 1
3493 768 1
3494 234 1
3494 235 1
3494 768 1
3495 234 1
3495 246 1
3495 768 1
3496 259 1
3496 309 1
3496 310 1
3497 259 1
3497 260 1
3497 262 1
3498 268 1
3498 489 1
3498 778 1
3499 259 1
3499 308 1
3499 309 1
3500 259 1
3500 309 1
3500 311 1
3501 268 1
3501 489 1
3501 778 1
3502 307 1
3502 308 1
3502 663 1
3503 171 1
3503 358 1
3503 1625 1
3504 670 1
3504 776 1
3504 777 1
3505 670 1
3505 776 1
3505 777 1
3506 670 1
3506 776 1
3506 777 1
3507 246 1
3507 250 1
3507 768 1
3508 234 1
3508 235 1
3508 768 1
3509 234 1
3509 235 1
3509 768 1
3510 234 1
3510 236 1
3510 768 1
3511 234 1
3511 235 1
3511 768 1
3512 234 1
3512 235 1
3512 768 1
3513 234 1
3513 235 1
3513 768 1
3514 268 1
3514 489 1
3514 778 1
3515 232 1
3515 484 1
3515 485 1
3516 670 1
3516 776 1
3516 1553 1
3517 268 1
3517 489 1
3517 778 1
3518 232 1
3518 485 1
3518 4101 1
3519 234 1
3519 236 1
3519 768 1
3520 243 1
3520 2779 1
3520 4104 1
3521 670 1
3521 776 1
3521 777 1
3522 234 1
3522 236 1
3522 768 1
3523 259 1
3523 260 1
3523 262 1
3524 259 1
3524 260 1
3524 262 1
3525 1893 1
3525 2211 1
3525 3340 1
3526 1893 1
3526 2211 1
3526 3340 1
3527 311 1
3527 791 1
3527 1551 1
3528 670 1
3528 776 1
3528 1553 1
3529 670 1
3529 776 1
3529 1553 1
3530 268 1
3530 489 1
3530 778 1
3531 221 1
3531 222 1
3531 309 1
3532 776 1
3532 1553 1
3532 4110 1
3533 308 1
3533 309 1
3533 313 1
3534 308 1
3534 309 1
3534 1933 1
3535 308 1
3535 309 1
3535 313 1
3536 308 1
3536 309 1
3536 313 1
3537 308 1
3537 309 1
3537 313 1
3538 307 1
3538 308 1
3538 309 1
3539 308 1
3539 309 1
3539 313 1
3540 308 1
3540 309 1
3540 313 1
3541 308 1
3541 309 1
3541 313 1
3542 308 1
3542 309 1
3542 1933 1
3543 308 1
3543 309 1
3543 313 1
3544 308 1
3544 309 1
3544 313 1
3545 308 1
3545 309 1
3545 313 1
3546 308 1
3546 663 1
3546 1689 1
3547 308 1
3547 313 1
3547 663 1
3548 308 1
3548 309 1
3548 313 1
3549 307 1
3549 308 1
3549 309 1
3550 308 1
3550 309 1
3550 313 1
3551 308 1
3551 309 1
3551 313 1
3552 308 1
3552 309 1
3552 313 1
3553 308 1
3553 309 1
3553 313 1
3554 308 1
3554 313 1
3554 663 1
3555 308 1
3555 309 1
3555 310 1
3556 308 1
3556 309 1
3556 313 1
3557 308 1
3557 309 1
3557 313 1
3558 663 1
3558 1689 1
3558 1943 1
3559 308 1
3559 309 1
3559 313 1
3560 308 1
3560 309 1
3560 313 1
3561 663 1
3561 1689 1
3561 1943 1
3562 268 1
3562 489 1
3562 778 1
3563 776 1
3563 777 1
3563 1569 1
3564 259 1
3564 308 1
3564 310 1
3565 670 1
3565 776 1
3565 777 1
3566 670 1
3566 776 1
3566 777 1
3567 670 1
3567 776 1
3567 777 1
3568 234 1
3568 244 1
3568 245 1
3569 243 1
3569 2296 1
3569 2629 1
3570 232 1
3570 465 1
3570 2589 1
3571 232 1
3571 2855 1
3571 3541 1
3572 234 1
3572 244 1
3572 245 1
3573 234 1
3573 244 1
3573 245 1
3574 243 1
3574 776 1
3574 2855 1
3575 234 1
3575 244 1
3575 245 1
3576 234 1
3576 246 1
3576 768 1
3577 357 1
3577 1089 1
3577 1556 1
3578 670 1
3578 776 1
3578 1553 1
3579 844 1
3579 1139 1
3579 1864 1
3580 780 1
3580 786 1
3580 1831 1
3581 222 1
3581 776 1
3581 1491 1
3582 259 1
3582 261 1
3582 262 1
3583 259 1
3583 261 1
3583 262 1
3584 243 1
3584 782 1
3584 942 1
3585 259 1
3585 261 1
3585 262 1
3586 222 1
3586 776 1
3586 1491 1
3587 259 1
3587 261 1
3587 262 1
3588 670 1
3588 776 1
3588 1553 1
3589 268 1
3589 489 1
3589 778 1
3590 268 1
3590 489 1
3590 778 1
3591 268 1
3591 358 1
3591 489 1
3592 234 1
3592 236 1
3592 250 1
3593 268 1
3593 489 1
3593 778 1
3594 259 1
3594 260 1
3594 262 1
3595 260 1
3595 261 1
3595 262 1
3596 234 1
3596 246 1
3596 3421 1
3597 245 1
3597 1647 1
3597 3417 1
3598 1647 1
3598 2138 1
3598 4123 1
3599 259 1
3599 261 1
3599 262 1
3600 234 1
3600 245 1
3600 3568 1
3601 262 1
3601 791 1
3601 792 1
3602 261 1
3602 263 1
3602 339 1
3603 259 1
3603 260 1
3603 262 1
3604 259 1
3604 260 1
3604 262 1
3605 234 1
3605 246 1
3605 768 1
3606 234 1
3606 246 1
3606 1555 1
3607 234 1
3607 244 1
3607 245 1
3608 234 1
3608 244 1
3608 245 1
3609 234 1
3609 244 1
3609 1555 1
3610 234 1
3610 245 1
3610 1555 1
3611 234 1
3611 244 1
3611 246 1
3612 234 1
3612 244 1
3612 246 1
3613 234 1
3613 244 1
3613 246 1
3614 234 1
3614 244 1
3614 246 1
3615 234 1
3615 246 1
3615 768 1
3616 234 1
3616 246 1
3616 768 1
3617 234 1
3617 246 1
3617 768 1
3618 234 1
3618 246 1
3618 768 1
3619 234 1
3619 246 1
3619 768 1
3620 234 1
3620 246 1
3620 768 1
3621 234 1
3621 246 1
3621 768 1
3622 234 1
3622 246 1
3622 768 1
3623 234 1
3623 244 1
3623 246 1
3624 234 1
3624 244 1
3624 246 1
3625 234 1
3625 244 1
3625 246 1
3626 234 1
3626 245 1
3626 1555 1
3627 234 1
3627 245 1
3627 1555 1
3628 234 1
3628 245 1
3628 1555 1
3629 234 1
3629 245 1
3629 1555 1
3630 234 1
3630 245 1
3630 1555 1
3631 234 1
3631 245 1
3631 1555 1
3632 234 1
3632 244 1
3632 246 1
3633 4139 1
3633 4140 1
3633 4141 1
3634 259 1
3634 309 1
3634 310 1
3635 308 1
3635 309 1
3635 310 1
3636 321 1
3636 1174 1
3636 4147 1
3637 234 1
3637 235 1
3637 768 1
3638 234 1
3638 235 1
3638 768 1
3639 234 1
3639 235 1
3639 768 1
3640 234 1
3640 235 1
3640 768 1
3641 234 1
3641 235 1
3641 768 1
3642 234 1
3642 235 1
3642 768 1
3643 234 1
3643 235 1
3643 768 1
3644 234 1
3644 235 1
3644 768 1
3645 234 1
3645 235 1
3645 768 1
3646 234 1
3646 235 1
3646 768 1
3647 1893 1
3647 3901 1
3647 4149 1
3648 1893 1
3648 3901 1
3648 4149 1
3649 1066 1
3649 1893 1
3649 3901 1
3650 1066 1
3650 1893 1
3650 3901 1
3651 1893 1
3651 2595 1
3651 3901 1
3652 1032 1
3652 1893 1
3652 3901 1
3653 1066 1
3653 1893 1
3653 3901 1
3654 234 1
3654 235 1
3654 236 1
3655 234 1
3655 235 1
3655 236 1
3656 235 1
3656 246 1
3656 768 1
3657 235 1
3657 246 1
3657 768 1
3658 235 1
3658 246 1
3658 768 1
3659 670 1
3659 776 1
3659 1553 1
3660 259 1
3660 309 1
3660 313 1
3661 259 1
3661 309 1
3661 310 1
3662 259 1
3662 261 1
3662 262 1
3663 670 1
3663 776 1
3663 1553 1
3664 670 1
3664 776 1
3664 1553 1
3665 268 1
3665 489 1
3665 778 1
3666 171 1
3666 268 1
3666 489 1
3667 233 1
3667 268 1
3667 489 1
3668 776 1
3668 777 1
3668 1569 1
3669 260 1
3669 261 1
3669 262 1
3670 259 1
3670 260 1
3670 262 1
3671 776 1
3671 777 1
3671 1569 1
3672 669 1
3672 776 1
3672 1551 1
3673 222 1
3673 234 1
3673 236 1
3674 222 1
3674 234 1
3674 236 1
3675 222 1
3675 234 1
3675 236 1
3676 234 1
3676 236 1
3676 768 1
3677 456 1
3677 502 1
3677 512 1
3678 307 1
3678 308 1
3678 309 1
3679 308 1
3679 309 1
3679 313 1
3680 259 1
3680 309 1
3680 313 1
3681 308 1
3681 309 1
3681 313 1
3682 670 1
3682 777 1
3682 2296 1
3683 670 1
3683 777 1
3683 2296 1
3684 2138 1
3684 4158 1
3684 4159 1
3685 670 1
3685 776 1
3685 777 1
3686 776 1
3686 777 1
3686 894 1
3687 259 1
3687 309 1
3687 310 1
3688 308 1
3688 309 1
3688 313 1
3689 259 1
3689 308 1
3689 310 1
3690 259 1
3690 308 1
3690 310 1
3691 498 1
3691 828 1
3691 1181 1
3692 307 1
3692 308 1
3692 309 1
3693 308 1
3693 309 1
3693 313 1
3694 308 1
3694 309 1
3694 313 1
3695 308 1
3695 309 1
3695 313 1
3696 308 1
3696 309 1
3696 313 1
3697 308 1
3697 309 1
3697 313 1
3698 308 1
3698 309 1
3698 310 1
3699 308 1
3699 309 1
3699 313 1
3700 259 1
3700 308 1
3700 309 1
3701 259 1
3701 308 1
3701 314 1
3702 776 1
3702 777 1
3702 894 1
3703 234 1
3703 244 1
3703 245 1
3704 244 1
3704 245 1
3704 1555 1
3705 320 1
3705 837 1
3705 4168 1
3706 234 1
3706 244 1
3706 245 1
3707 319 1
3707 770 1
3707 2855 1
3708 244 1
3708 245 1
3708 1555 1
3709 268 1
3709 489 1
3709 778 1
3710 776 1
3710 777 1
3710 1569 1
3711 233 1
3711 268 1
3711 489 1
3712 448 1
3712 776 1
3712 777 1
3713 777 1
3713 804 1
3713 894 1
3714 234 1
3714 235 1
3714 245 1
3715 268 1
3715 489 1
3715 778 1
3716 222 1
3716 244 1
3716 776 1
3717 259 1
3717 308 1
3717 309 1
3718 259 1
3718 308 1
3718 314 1
3719 259 1
3719 309 1
3719 314 1
3720 259 1
3720 308 1
3720 309 1
3721 259 1
3721 308 1
3721 314 1
3722 259 1
3722 309 1
3722 314 1
3723 1941 1
3723 2157 1
3723 2231 1
3724 235 1
3724 250 1
3724 768 1
3725 234 1
3725 244 1
3725 245 1
3726 235 1
3726 250 1
3726 768 1
3727 259 1
3727 308 1
3727 309 1
3728 259 1
3728 308 1
3728 314 1
3729 259 1
3729 308 1
3729 314 1
3730 259 1
3730 308 1
3730 314 1
3731 259 1
3731 308 1
3731 314 1
3732 1071 1
3732 1863 1
3732 4198 1
3733 1092 1
3733 1113 1
3733 1132 1
3734 1066 1
3734 1092 1
3734 2566 1
3735 1071 1
3735 1863 1
3735 4198 1
3736 670 1
3736 776 1
3736 777 1
3737 670 1
3737 776 1
3737 1553 1
3738 234 1
3738 235 1
3738 236 1
3739 261 1
3739 356 1
3739 822 1
3740 261 1
3740 356 1
3740 822 1
3741 261 1
3741 310 1
3741 1490 1
3742 261 1
3742 310 1
3742 1490 1
3743 456 1
3743 502 1
3743 512 1
3744 456 1
3744 502 1
3744 512 1
3745 456 1
3745 502 1
3745 512 1
3746 456 1
3746 502 1
3746 512 1
3747 456 1
3747 502 1
3747 512 1
3748 456 1
3748 502 1
3748 512 1
3749 259 1
3749 308 1
3749 314 1
3750 259 1
3750 308 1
3750 314 1
3751 307 1
3751 308 1
3751 309 1
3752 308 1
3752 309 1
3752 313 1
3753 456 1
3753 502 1
3753 512 1
3754 464 1
3754 2007 1
3754 2008 1
3755 259 1
3755 261 1
3755 262 1
3756 259 1
3756 261 1
3756 262 1
3757 739 1
3757 740 1
3757 741 1
3758 308 1
3758 309 1
3758 313 1
3759 259 1
3759 309 1
3759 310 1
3760 259 1
3760 308 1
3760 314 1
3761 259 1
3761 308 1
3761 314 1
3762 308 1
3762 309 1
3762 313 1
3763 259 1
3763 308 1
3763 309 1
3764 259 1
3764 309 1
3764 313 1
3765 259 1
3765 308 1
3765 314 1
3766 259 1
3766 308 1
3766 314 1
3767 308 1
3767 309 1
3767 313 1
3768 259 1
3768 308 1
3768 309 1
3769 308 1
3769 309 1
3769 313 1
3770 259 1
3770 309 1
3770 313 1
3771 259 1
3771 309 1
3771 311 1
3772 670 1
3772 776 1
3772 777 1
3773 268 1
3773 489 1
3773 778 1
3774 221 1
3774 222 1
3774 309 1
3775 776 1
3775 894 1
3775 2678 1
3776 670 1
3776 776 1
3776 1553 1
3777 244 1
3777 502 1
3777 1545 1
3778 236 1
3778 250 1
3778 768 1
3779 234 1
3779 246 1
3779 768 1
3780 234 1
3780 236 1
3780 768 1
3781 234 1
3781 236 1
3781 768 1
3782 670 1
3782 776 1
3782 777 1
3783 221 1
3783 222 1
3783 309 1
3784 670 1
3784 776 1
3784 1553 1
3785 246 1
3785 250 1
3785 768 1
3786 234 1
3786 245 1
3786 250 1
3787 234 1
3787 245 1
3787 246 1
3788 670 1
3788 776 1
3788 777 1
3789 259 1
3789 309 1
3789 311 1
3790 234 1
3790 236 1
3790 768 1
3791 234 1
3791 236 1
3791 768 1
3792 234 1
3792 236 1
3792 768 1
3793 235 1
3793 244 1
3793 246 1
3794 234 1
3794 236 1
3794 768 1
3795 234 1
3795 236 1
3795 768 1
3796 234 1
3796 236 1
3796 768 1
3797 234 1
3797 236 1
3797 768 1
3798 234 1
3798 236 1
3798 768 1
3799 234 1
3799 236 1
3799 768 1
3800 234 1
3800 236 1
3800 768 1
3801 234 1
3801 236 1
3801 768 1
3802 234 1
3802 236 1
3802 768 1
3803 234 1
3803 236 1
3803 768 1
3804 234 1
3804 236 1
3804 768 1
3805 268 1
3805 778 1
3805 1805 1
3806 670 1
3806 776 1
3806 777 1
3807 1059 1
3807 1062 1
3807 1133 1
3808 1907 1
3808 3590 1
3808 3681 1
3809 1907 1
3809 1908 1
3809 3681 1
3810 147 1
3810 1255 1
3810 1256 1
3811 1290 1
3811 1291 1
3811 1292 1
3812 1231 1
3812 1232 1
3812 4279 1
3813 1239 1
3813 1345 1
3813 1475 1
3814 2803 1
3814 2808 1
3814 3867 1
3815 234 1
3815 235 1
3815 768 1
3816 308 1
3816 310 1
3816 663 1
3817 307 1
3817 308 1
3817 663 1
3818 307 1
3818 308 1
3818 309 1
3819 244 1
3819 358 1
3819 1014 1
3820 244 1
3820 358 1
3820 1014 1
3821 308 1
3821 313 1
3821 663 1
3822 367 1
3822 669 1
3822 776 1
3823 367 1
3823 669 1
3823 776 1
3824 263 1
3824 313 1
3824 663 1
3825 308 1
3825 313 1
3825 663 1
3826 308 1
3826 313 1
3826 663 1
3827 308 1
3827 313 1
3827 663 1
3828 263 1
3828 309 1
3828 820 1
3829 171 1
3829 268 1
3829 489 1
3830 171 1
3830 268 1
3830 489 1
3831 259 1
3831 260 1
3831 262 1
3832 233 1
3832 268 1
3832 489 1
3833 233 1
3833 268 1
3833 489 1
3834 268 1
3834 359 1
3834 489 1
3835 456 1
3835 502 1
3835 512 1
3836 261 1
3836 440 1
3836 4296 1
3837 268 1
3837 489 1
3837 778 1
3838 171 1
3838 268 1
3838 489 1
3839 171 1
3839 492 1
3839 1169 1
3840 464 1
3840 2007 1
3840 2008 1
3841 259 1
3841 262 1
3841 2852 1
3842 265 1
3842 266 1
3842 267 1
3843 87 1
3843 256 1
3843 409 1
3844 257 1
3844 1672 1
3844 4306 1
3845 308 1
3845 309 1
3845 313 1
3846 259 1
3846 308 1
3846 309 1
3847 222 1
3847 244 1
3847 503 1
3848 268 1
3848 489 1
3848 1823 1
3849 2007 1
3849 2008 1
3849 4309 1
3850 307 1
3850 308 1
3850 663 1
3851 265 1
3851 266 1
3851 267 1
3852 263 1
3852 663 1
3852 1548 1
3853 2094 1
3853 2662 1
3853 2932 1
3854 1061 1
3854 1571 1
3854 2099 1
3855 1080 1
3855 1082 1
3855 1088 1
3856 1091 1
3856 1119 1
3856 2028 1
3857 1080 1
3857 1082 1
3857 1088 1
3858 234 1
3858 235 1
3858 768 1
3859 670 1
3859 776 1
3859 777 1
3860 268 1
3860 489 1
3860 1823 1
3861 263 1
3861 309 1
3861 820 1
3862 268 1
3862 489 1
3862 778 1
3863 259 1
3863 260 1
3863 262 1
3864 179 1
3864 268 1
3864 489 1
3865 268 1
3865 489 1
3865 778 1
3866 259 1
3866 260 1
3866 262 1
3867 259 1
3867 260 1
3867 262 1
3868 259 1
3868 260 1
3868 262 1
3869 259 1
3869 260 1
3869 262 1
3870 352 1
3870 967 1
3870 968 1
3871 456 1
3871 502 1
3871 512 1
3872 456 1
3872 502 1
3872 512 1
3873 670 1
3873 777 1
3873 2296 1
3874 670 1
3874 777 1
3874 2296 1
3875 670 1
3875 776 1
3875 777 1
3876 670 1
3876 777 1
3876 2296 1
3877 670 1
3877 777 1
3877 2296 1
3878 260 1
3878 261 1
3878 262 1
3879 259 1
3879 260 1
3879 262 1
3880 234 1
3880 235 1
3880 236 1
3881 236 1
3881 246 1
3881 768 1
3882 259 1
3882 308 1
3882 314 1
3883 259 1
3883 308 1
3883 309 1
3884 268 1
3884 489 1
3884 778 1
3885 259 1
3885 261 1
3885 262 1
3886 268 1
3886 489 1
3886 778 1
3887 221 1
3887 222 1
3887 309 1
3888 246 1
3888 250 1
3888 768 1
3889 308 1
3889 309 1
3889 313 1
3890 670 1
3890 776 1
3890 1553 1
3891 259 1
3891 308 1
3891 309 1
3892 259 1
3892 309 1
3892 311 1
3893 259 1
3893 261 1
3893 262 1
3894 308 1
3894 309 1
3894 313 1
3895 259 1
3895 308 1
3895 314 1
3896 456 1
3896 502 1
3896 512 1
3897 259 1
3897 1494 1
3897 1495 1
3898 308 1
3898 309 1
3898 313 1
3899 259 1
3899 309 1
3899 310 1
3900 259 1
3900 309 1
3900 311 1
3901 259 1
3901 309 1
3901 313 1
3902 259 1
3902 308 1
3902 309 1
3903 259 1
3903 308 1
3903 314 1
3904 259 1
3904 309 1
3904 310 1
3905 259 1
3905 308 1
3905 309 1
3906 259 1
3906 309 1
3906 313 1
3907 259 1
3907 308 1
3907 309 1
3908 259 1
3908 308 1
3908 314 1
3909 259 1
3909 1494 1
3909 1495 1
3910 669 1
3910 776 1
3910 1551 1
3911 268 1
3911 489 1
3911 778 1
3912 221 1
3912 222 1
3912 309 1
3913 221 1
3913 222 1
3913 309 1
3914 259 1
3914 309 1
3914 313 1
3915 308 1
3915 309 1
3915 313 1
3916 259 1
3916 308 1
3916 314 1
3917 670 1
3917 776 1
3917 777 1
3918 259 1
3918 308 1
3918 314 1
3919 259 1
3919 308 1
3919 309 1
3920 268 1
3920 358 1
3920 489 1
3921 259 1
3921 308 1
3921 309 1
3922 259 1
3922 309 1
3922 314 1
3923 259 1
3923 309 1
3923 313 1
3924 259 1
3924 262 1
3924 1494 1
3925 259 1
3925 261 1
3925 262 1
3926 259 1
3926 308 1
3926 309 1
3927 259 1
3927 309 1
3927 313 1
3928 259 1
3928 261 1
3928 262 1
3929 259 1
3929 309 1
3929 311 1
3930 450 1
3930 456 1
3930 531 1
3931 259 1
3931 308 1
3931 314 1
3932 456 1
3932 502 1
3932 512 1
3933 259 1
3933 261 1
3933 262 1
3934 308 1
3934 309 1
3934 313 1
3935 259 1
3935 308 1
3935 309 1
3936 259 1
3936 261 1
3936 262 1
3937 259 1
3937 308 1
3937 314 1
3938 261 1
3938 356 1
3938 828 1
3939 259 1
3939 309 1
3939 310 1
3940 268 1
3940 489 1
3940 778 1
3941 308 1
3941 309 1
3941 313 1
3942 450 1
3942 456 1
3942 531 1
3943 456 1
3943 502 1
3943 512 1
3944 259 1
3944 308 1
3944 309 1
3945 259 1
3945 308 1
3945 314 1
3946 308 1
3946 309 1
3946 313 1
3947 456 1
3947 502 1
3947 512 1
3948 259 1
3948 308 1
3948 314 1
3949 259 1
3949 309 1
3949 311 1
3950 259 1
3950 1494 1
3950 1495 1
3951 259 1
3951 309 1
3951 311 1
3952 259 1
3952 308 1
3952 314 1
3953 259 1
3953 308 1
3953 309 1
3954 259 1
3954 309 1
3954 311 1
3955 259 1
3955 308 1
3955 309 1
3956 259 1
3956 308 1
3956 309 1
3957 259 1
3957 308 1
3957 309 1
3958 259 1
3958 309 1
3958 314 1
3959 259 1
3959 261 1
3959 262 1
3960 268 1
3960 489 1
3960 778 1
3961 259 1
3961 262 1
3961 1494 1
3962 670 1
3962 776 1
3962 1553 1
3963 259 1
3963 308 1
3963 310 1
3964 307 1
3964 308 1
3964 309 1
3965 259 1
3965 308 1
3965 309 1
3966 259 1
3966 309 1
3966 311 1
3967 221 1
3967 222 1
3967 309 1
3968 308 1
3968 309 1
3968 313 1
3969 259 1
3969 308 1
3969 314 1
3970 259 1
3970 308 1
3970 314 1
3971 259 1
3971 308 1
3971 314 1
3972 259 1
3972 308 1
3972 314 1
3973 308 1
3973 309 1
3973 313 1
3974 259 1
3974 309 1
3974 310 1
3975 259 1
3975 309 1
3975 310 1
3976 259 1
3976 308 1
3976 309 1
3977 259 1
3977 308 1
3977 309 1
3978 259 1
3978 308 1
3978 314 1
3979 259 1
3979 308 1
3979 314 1
3980 259 1
3980 309 1
3980 313 1
3981 259 1
3981 309 1
3981 310 1
3982 259 1
3982 308 1
3982 309 1
3983 268 1
3983 358 1
3983 489 1
3984 307 1
3984 308 1
3984 309 1
3985 308 1
3985 309 1
3985 313 1
3986 259 1
3986 308 1
3986 314 1
3987 670 1
3987 776 1
3987 777 1
3988 259 1
3988 308 1
3988 314 1
3989 179 1
3989 268 1
3989 489 1
3990 259 1
3990 308 1
3990 309 1
3991 259 1
3991 309 1
3991 313 1
3992 268 1
3992 489 1
3992 778 1
3993 221 1
3993 222 1
3993 309 1
3994 259 1
3994 308 1
3994 309 1
3995 259 1
3995 308 1
3995 309 1
3996 259 1
3996 309 1
3996 311 1
3997 450 1
3997 456 1
3997 531 1
3998 259 1
3998 308 1
3998 314 1
3999 456 1
3999 502 1
3999 512 1
4000 259 1
4000 261 1
4000 262 1
4001 309 1
4001 783 1
4001 789 1
4002 259 1
4002 308 1
4002 309 1
4003 259 1
4003 261 1
4003 262 1
4004 259 1
4004 308 1
4004 314 1
4005 259 1
4005 309 1
4005 310 1
4006 308 1
4006 309 1
4006 313 1
4007 456 1
4007 502 1
4007 512 1
4008 259 1
4008 308 1
4008 314 1
4009 259 1
4009 308 1
4009 309 1
4010 259 1
4010 308 1
4010 314 1
4011 221 1
4011 222 1
4011 309 1
4012 456 1
4012 502 1
4012 512 1
4013 259 1
4013 308 1
4013 314 1
4014 259 1
4014 309 1
4014 311 1
4015 259 1
4015 308 1
4015 314 1
4016 307 1
4016 308 1
4016 309 1
4017 259 1
4017 308 1
4017 309 1
4018 259 1
4018 309 1
4018 313 1
4019 268 1
4019 358 1
4019 1805 1
4020 259 1
4020 308 1
4020 309 1
4021 670 1
4021 776 1
4021 1553 1
4022 670 1
4022 776 1
4022 1553 1
4023 670 1
4023 776 1
4023 1553 1
4024 259 1
4024 261 1
4024 262 1
4025 268 1
4025 489 1
4025 778 1
4026 259 1
4026 261 1
4026 262 1
4027 307 1
4027 308 1
4027 309 1
4028 259 1
4028 308 1
4028 309 1
4029 259 1
4029 309 1
4029 311 1
4030 450 1
4030 456 1
4030 531 1
4031 308 1
4031 309 1
4031 313 1
4032 259 1
4032 308 1
4032 314 1
4033 259 1
4033 308 1
4033 314 1
4034 259 1
4034 261 1
4034 262 1
4035 308 1
4035 309 1
4035 313 1
4036 259 1
4036 262 1
4036 1494 1
4037 259 1
4037 309 1
4037 310 1
4038 259 1
4038 308 1
4038 309 1
4039 259 1
4039 308 1
4039 309 1
4040 259 1
4040 308 1
4040 314 1
4041 259 1
4041 308 1
4041 309 1
4042 259 1
4042 308 1
4042 314 1
4043 259 1
4043 261 1
4043 262 1
4044 259 1
4044 308 1
4044 309 1
4045 259 1
4045 308 1
4045 314 1
4046 221 1
4046 222 1
4046 309 1
4047 259 1
4047 1494 1
4047 1495 1
4048 259 1
4048 308 1
4048 314 1
4049 261 1
4049 310 1
4049 1490 1
4050 261 1
4050 310 1
4050 1490 1
4051 259 1
4051 308 1
4051 309 1
4052 259 1
4052 309 1
4052 311 1
4053 259 1
4053 1494 1
4053 1495 1
4054 670 1
4054 776 1
4054 777 1
4055 1127 1
4055 1925 1
4055 3095 1
4056 450 1
4056 1659 1
4056 2858 1
4057 235 1
4057 246 1
4057 768 1
4058 235 1
4058 246 1
4058 768 1
4059 822 1
4059 1762 1
4059 4345 1
4060 822 1
4060 1762 1
4060 4345 1
4061 670 1
4061 776 1
4061 777 1
4062 179 1
4062 1805 1
4062 2614 1
4063 221 1
4063 222 1
4063 309 1
4064 221 1
4064 222 1
4064 309 1
4065 179 1
4065 1805 1
4065 2614 1
4066 776 1
4066 777 1
4066 1569 1
4067 776 1
4067 777 1
4067 1569 1
4068 99 1
4068 100 1
4068 603 1
4069 99 1
4069 100 1
4069 603 1
4070 99 1
4070 100 1
4070 603 1
4071 99 1
4071 100 1
4071 603 1
4072 99 1
4072 100 1
4072 603 1
4073 99 1
4073 100 1
4073 603 1
4074 232 1
4074 484 1
4074 485 1
4075 268 1
4075 489 1
4075 778 1
4076 268 1
4076 489 1
4076 778 1
4077 670 1
4077 776 1
4077 777 1
4078 260 1
4078 261 1
4078 262 1
4079 171 1
4079 268 1
4079 489 1
4080 1621 1
4080 4367 1
4080 4368 1
4081 1118 1
4081 2102 1
4081 2138 1
4082 259 1
4082 309 1
4082 311 1
4083 259 1
4083 308 1
4083 309 1
4084 670 1
4084 776 1
4084 1569 1
4085 670 1
4085 776 1
4085 1553 1
4086 308 1
4086 309 1
4086 313 1
4087 268 1
4087 489 1
4087 778 1
4088 259 1
4088 309 1
4088 313 1
4089 308 1
4089 309 1
4089 313 1
4090 259 1
4090 308 1
4090 314 1
4091 259 1
4091 308 1
4091 314 1
4092 268 1
4092 358 1
4092 489 1
4093 179 1
4093 268 1
4093 489 1
4094 268 1
4094 489 1
4094 778 1
4095 259 1
4095 308 1
4095 309 1
4096 259 1
4096 309 1
4096 313 1
4097 259 1
4097 309 1
4097 311 1
4098 259 1
4098 261 1
4098 262 1
4099 259 1
4099 261 1
4099 262 1
4100 221 1
4100 222 1
4100 309 1
4101 268 1
4101 489 1
4101 778 1
4102 259 1
4102 261 1
4102 262 1
4103 259 1
4103 309 1
4103 311 1
4104 259 1
4104 308 1
4104 310 1
4105 259 1
4105 308 1
4105 310 1
4106 259 1
4106 308 1
4106 314 1
4107 450 1
4107 456 1
4107 531 1
4108 259 1
4108 308 1
4108 314 1
4109 456 1
4109 502 1
4109 512 1
4110 259 1
4110 1494 1
4110 1495 1
4111 259 1
4111 261 1
4111 262 1
4112 259 1
4112 262 1
4112 1494 1
4113 309 1
4113 783 1
4113 789 1
4114 259 1
4114 261 1
4114 262 1
4115 259 1
4115 309 1
4115 311 1
4116 259 1
4116 309 1
4116 310 1
4117 259 1
4117 308 1
4117 314 1
4118 259 1
4118 309 1
4118 311 1
4119 259 1
4119 308 1
4119 309 1
4120 259 1
4120 308 1
4120 314 1
4121 259 1
4121 309 1
4121 310 1
4122 259 1
4122 308 1
4122 314 1
4123 259 1
4123 308 1
4123 309 1
4124 308 1
4124 309 1
4124 313 1
4125 232 1
4125 484 1
4125 485 1
4126 259 1
4126 261 1
4126 262 1
4127 259 1
4127 309 1
4127 313 1
4128 259 1
4128 309 1
4128 313 1
4129 456 1
4129 502 1
4129 512 1
4130 259 1
4130 309 1
4130 311 1
4131 232 1
4131 484 1
4131 485 1
4132 259 1
4132 308 1
4132 309 1
4133 259 1
4133 308 1
4133 314 1
4134 221 1
4134 222 1
4134 309 1
4135 259 1
4135 308 1
4135 309 1
4136 308 1
4136 309 1
4136 313 1
4137 259 1
4137 308 1
4137 314 1
4138 259 1
4138 308 1
4138 314 1
4139 259 1
4139 309 1
4139 313 1
4140 259 1
4140 309 1
4140 310 1
4141 259 1
4141 309 1
4141 310 1
4142 259 1
4142 309 1
4142 311 1
4143 259 1
4143 1494 1
4143 1495 1
4144 259 1
4144 308 1
4144 314 1
4145 307 1
4145 308 1
4145 309 1
4146 259 1
4146 308 1
4146 314 1
4147 259 1
4147 308 1
4147 309 1
4148 259 1
4148 308 1
4148 314 1
4149 259 1
4149 308 1
4149 314 1
4150 259 1
4150 261 1
4150 262 1
4151 221 1
4151 222 1
4151 309 1
4152 259 1
4152 308 1
4152 309 1
4153 259 1
4153 261 1
4153 262 1
4154 450 1
4154 456 1
4154 531 1
4155 259 1
4155 308 1
4155 314 1
4156 456 1
4156 502 1
4156 512 1
4157 259 1
4157 308 1
4157 309 1
4158 259 1
4158 261 1
4158 262 1
4159 259 1
4159 308 1
4159 309 1
4160 259 1
4160 261 1
4160 262 1
4161 259 1
4161 309 1
4161 311 1
4162 259 1
4162 308 1
4162 314 1
4163 259 1
4163 309 1
4163 310 1
4164 308 1
4164 309 1
4164 313 1
4165 259 1
4165 261 1
4165 262 1
4166 456 1
4166 502 1
4166 512 1
4167 259 1
4167 309 1
4167 310 1
4168 259 1
4168 308 1
4168 309 1
4169 221 1
4169 222 1
4169 309 1
4170 259 1
4170 308 1
4170 314 1
4171 259 1
4171 309 1
4171 311 1
4172 259 1
4172 308 1
4172 314 1
4173 307 1
4173 308 1
4173 309 1
4174 259 1
4174 308 1
4174 309 1
4175 244 1
4175 358 1
4175 1014 1
4176 234 1
4176 236 1
4176 768 1
4177 268 1
4177 489 1
4177 778 1
4178 268 1
4178 489 1
4178 778 1
4179 268 1
4179 489 1
4179 778 1
4180 259 1
4180 261 1
4180 262 1
4181 259 1
4181 309 1
4181 310 1
4182 259 1
4182 308 1
4182 314 1
4183 259 1
4183 308 1
4183 314 1
4184 259 1
4184 308 1
4184 309 1
4185 259 1
4185 308 1
4185 309 1
4186 259 1
4186 308 1
4186 314 1
4187 259 1
4187 308 1
4187 309 1
4188 259 1
4188 308 1
4188 309 1
4189 259 1
4189 308 1
4189 314 1
4190 739 1
4190 740 1
4190 741 1
4191 87 1
4191 256 1
4191 409 1
4192 87 1
4192 256 1
4192 409 1
4193 87 1
4193 256 1
4193 409 1
4194 87 1
4194 256 1
4194 409 1
4195 87 1
4195 256 1
4195 409 1
4196 233 1
4196 268 1
4196 489 1
4197 268 1
4197 489 1
4197 778 1
4198 233 1
4198 268 1
4198 489 1
4199 259 1
4199 309 1
4199 313 1
4200 259 1
4200 309 1
4200 311 1
4201 259 1
4201 309 1
4201 311 1
4202 259 1
4202 309 1
4202 311 1
4203 259 1
4203 309 1
4203 311 1
4204 259 1
4204 309 1
4204 310 1
4205 259 1
4205 308 1
4205 309 1
4206 259 1
4206 309 1
4206 311 1
4207 259 1
4207 309 1
4207 311 1
4208 259 1
4208 309 1
4208 310 1
4209 259 1
4209 308 1
4209 309 1
4210 234 1
4210 235 1
4210 236 1
4211 776 1
4211 777 1
4211 894 1
4212 670 1
4212 776 1
4212 777 1
4213 1926 1
4213 2398 1
4213 2850 1
4214 1032 1
4214 1074 1
4214 1113 1
4215 1194 1
4215 1700 1
4215 3389 1
4216 1119 1
4216 1148 1
4216 1924 1
4217 1032 1
4217 1074 1
4217 1113 1
4218 1119 1
4218 1148 1
4218 2750 1
4219 920 1
4219 2356 1
4219 2371 1
4220 1032 1
4220 1074 1
4220 1113 1
4221 920 1
4221 2356 1
4221 2371 1
4222 1023 1
4222 1084 1
4222 2108 1
4223 1048 1
4223 1101 1
4223 1125 1
4224 670 1
4224 776 1
4224 777 1
4225 670 1
4225 776 1
4225 777 1
4226 920 1
4226 2356 1
4226 2371 1
4227 920 1
4227 2356 1
4227 2371 1
4228 261 1
4228 262 1
4228 2852 1
4229 87 1
4229 409 1
4229 731 1
4230 87 1
4230 409 1
4230 731 1
4231 87 1
4231 409 1
4231 731 1
4232 87 1
4232 409 1
4232 731 1
4233 87 1
4233 409 1
4233 731 1
4234 1685 1
4234 4399 1
4234 4400 1
4235 1032 1
4235 1048 1
4235 1081 1
4236 234 1
4236 235 1
4236 768 1
4237 235 1
4237 246 1
4237 768 1
4238 234 1
4238 235 1
4238 768 1
4239 234 1
4239 246 1
4239 768 1
4240 234 1
4240 235 1
4240 768 1
4241 234 1
4241 235 1
4241 245 1
4242 234 1
4242 235 1
4242 245 1
4243 234 1
4243 235 1
4243 245 1
4244 234 1
4244 235 1
4244 245 1
4245 234 1
4245 235 1
4245 245 1
4246 234 1
4246 235 1
4246 245 1
4247 234 1
4247 235 1
4247 245 1
4248 234 1
4248 235 1
4248 245 1
4249 234 1
4249 235 1
4249 768 1
4250 234 1
4250 235 1
4250 245 1
4251 234 1
4251 235 1
4251 245 1
4252 235 1
4252 246 1
4252 768 1
4253 308 1
4253 309 1
4253 776 1
4254 234 1
4254 235 1
4254 236 1
4255 822 1
4255 1181 1
4255 1831 1
4256 670 1
4256 776 1
4256 777 1
4257 232 1
4257 484 1
4257 485 1
4258 232 1
4258 484 1
4258 485 1
4259 456 1
4259 502 1
4259 512 1
4260 456 1
4260 502 1
4260 512 1
4261 456 1
4261 502 1
4261 512 1
4262 456 1
4262 502 1
4262 512 1
4263 234 1
4263 235 1
4263 768 1
4264 234 1
4264 235 1
4264 768 1
4265 234 1
4265 235 1
4265 768 1
4266 234 1
4266 235 1
4266 768 1
4267 246 1
4267 250 1
4267 768 1
4268 259 1
4268 261 1
4268 262 1
4269 776 1
4269 777 1
4269 1569 1
4270 1059 1
4270 1101 1
4270 2088 1
4271 669 1
4271 776 1
4271 1551 1
4272 268 1
4272 489 1
4272 778 1
4273 234 1
4273 235 1
4273 768 1
4274 234 1
4274 235 1
4274 768 1
4275 234 1
4275 235 1
4275 768 1
4276 358 1
4276 1805 1
4276 2614 1
4277 268 1
4277 489 1
4277 778 1
4278 358 1
4278 1805 1
4278 2614 1
4279 312 1
4279 670 1
4279 777 1
4280 244 1
4280 358 1
4280 1014 1
4281 244 1
4281 358 1
4281 1014 1
4282 234 1
4282 235 1
4282 768 1
4283 234 1
4283 235 1
4283 768 1
4284 308 1
4284 663 1
4284 1689 1
4285 308 1
4285 313 1
4285 663 1
4286 308 1
4286 313 1
4286 663 1
4287 234 1
4287 235 1
4287 768 1
4288 259 1
4288 260 1
4288 262 1
4289 234 1
4289 246 1
4289 768 1
4290 234 1
4290 245 1
4290 246 1
4291 234 1
4291 245 1
4291 246 1
4292 234 1
4292 245 1
4292 246 1
4293 234 1
4293 245 1
4293 246 1
4294 234 1
4294 245 1
4294 246 1
4295 234 1
4295 245 1
4295 246 1
4296 234 1
4296 245 1
4296 246 1
4297 234 1
4297 245 1
4297 246 1
4298 234 1
4298 245 1
4298 246 1
4299 234 1
4299 246 1
4299 768 1
4300 234 1
4300 245 1
4300 1555 1
4301 234 1
4301 246 1
4301 768 1
4302 234 1
4302 245 1
4302 246 1
4303 234 1
4303 245 1
4303 246 1
4304 234 1
4304 245 1
4304 246 1
4305 234 1
4305 245 1
4305 246 1
4306 234 1
4306 245 1
4306 246 1
4307 234 1
4307 245 1
4307 246 1
4308 234 1
4308 245 1
4308 246 1
4309 234 1
4309 245 1
4309 246 1
4310 234 1
4310 245 1
4310 246 1
4311 234 1
4311 245 1
4311 246 1
4312 234 1
4312 245 1
4312 246 1
4313 234 1
4313 245 1
4313 246 1
4314 234 1
4314 245 1
4314 246 1
4315 234 1
4315 245 1
4315 246 1
4316 234 1
4316 245 1
4316 246 1
4317 234 1
4317 245 1
4317 246 1
4318 234 1
4318 245 1
4318 246 1
4319 234 1
4319 245 1
4319 246 1
4320 234 1
4320 246 1
4320 768 1
4321 234 1
4321 246 1
4321 768 1
4322 234 1
4322 246 1
4322 768 1
4323 234 1
4323 244 1
4323 246 1
4324 234 1
4324 245 1
4324 246 1
4325 234 1
4325 245 1
4325 246 1
4326 234 1
4326 245 1
4326 246 1
4327 234 1
4327 246 1
4327 768 1
4328 234 1
4328 246 1
4328 768 1
4329 234 1
4329 244 1
4329 246 1
4330 234 1
4330 244 1
4330 246 1
4331 234 1
4331 244 1
4331 246 1
4332 234 1
4332 244 1
4332 246 1
4333 234 1
4333 244 1
4333 246 1
4334 234 1
4334 235 1
4334 768 1
4335 234 1
4335 235 1
4335 768 1
4336 234 1
4336 235 1
4336 768 1
4337 234 1
4337 235 1
4337 768 1
4338 234 1
4338 235 1
4338 768 1
4339 234 1
4339 235 1
4339 768 1
4340 236 1
4340 246 1
4340 768 1
4341 236 1
4341 246 1
4341 768 1
4342 236 1
4342 246 1
4342 768 1
4343 236 1
4343 246 1
4343 768 1
4344 236 1
4344 246 1
4344 768 1
4345 236 1
4345 246 1
4345 768 1
4346 235 1
4346 246 1
4346 768 1
4347 236 1
4347 246 1
4347 768 1
4348 234 1
4348 235 1
4348 236 1
4349 234 1
4349 235 1
4349 236 1
4350 234 1
4350 235 1
4350 236 1
4351 235 1
4351 246 1
4351 768 1
4352 236 1
4352 246 1
4352 768 1
4353 236 1
4353 246 1
4353 768 1
4354 236 1
4354 246 1
4354 768 1
4355 235 1
4355 246 1
4355 768 1
4356 235 1
4356 246 1
4356 768 1
4357 235 1
4357 246 1
4357 768 1
4358 234 1
4358 235 1
4358 236 1
4359 234 1
4359 235 1
4359 236 1
4360 234 1
4360 235 1
4360 236 1
4361 234 1
4361 235 1
4361 236 1
4362 234 1
4362 235 1
4362 236 1
4363 235 1
4363 246 1
4363 768 1
4364 235 1
4364 246 1
4364 768 1
4365 235 1
4365 246 1
4365 768 1
4366 235 1
4366 246 1
4366 768 1
4367 235 1
4367 246 1
4367 768 1
4368 235 1
4368 246 1
4368 768 1
4369 235 1
4369 246 1
4369 768 1
4370 236 1
4370 246 1
4370 768 1
4371 235 1
4371 246 1
4371 768 1
4372 234 1
4372 235 1
4372 244 1
4373 235 1
4373 246 1
4373 768 1
4374 235 1
4374 246 1
4374 768 1
4375 235 1
4375 246 1
4375 768 1
4376 235 1
4376 246 1
4376 768 1
4377 236 1
4377 246 1
4377 768 1
4378 234 1
4378 235 1
4378 236 1
4379 234 1
4379 244 1
4379 245 1
4380 234 1
4380 244 1
4380 245 1
4381 244 1
4381 245 1
4381 246 1
4382 244 1
4382 245 1
4382 246 1
4383 308 1
4383 309 1
4383 313 1
4384 308 1
4384 309 1
4384 313 1
4385 309 1
4385 310 1
4385 1943 1
4386 309 1
4386 310 1
4386 1943 1
4387 308 1
4387 309 1
4387 313 1
4388 307 1
4388 308 1
4388 309 1
4389 308 1
4389 309 1
4389 313 1
4390 243 1
4390 465 1
4390 669 1
4391 259 1
4391 309 1
4391 313 1
4392 308 1
4392 309 1
4392 313 1
4393 259 1
4393 309 1
4393 311 1
4394 259 1
4394 308 1
4394 309 1
4395 259 1
4395 308 1
4395 309 1
4396 259 1
4396 308 1
4396 309 1
4397 259 1
4397 308 1
4397 314 1
4398 259 1
4398 308 1
4398 314 1
4399 308 1
4399 309 1
4399 313 1
4400 259 1
4400 309 1
4400 311 1
4401 308 1
4401 309 1
4401 313 1
4402 308 1
4402 309 1
4402 313 1
4403 308 1
4403 309 1
4403 313 1
4404 259 1
4404 309 1
4404 311 1
4405 259 1
4405 308 1
4405 309 1
4406 307 1
4406 308 1
4406 663 1
4407 307 1
4407 308 1
4407 309 1
4408 308 1
4408 309 1
4408 313 1
4409 321 1
4409 322 1
4409 325 1
4410 259 1
4410 1999 1
4410 2677 1
4411 307 1
4411 308 1
4411 309 1
4412 246 1
4412 250 1
4412 768 1
4413 246 1
4413 250 1
4413 768 1
4414 246 1
4414 250 1
4414 768 1
4415 246 1
4415 250 1
4415 768 1
4416 246 1
4416 250 1
4416 768 1
4417 246 1
4417 250 1
4417 768 1
4418 246 1
4418 250 1
4418 768 1
4419 246 1
4419 250 1
4419 768 1
4420 246 1
4420 250 1
4420 768 1
4421 246 1
4421 250 1
4421 768 1
4422 246 1
4422 250 1
4422 768 1
4423 766 1
4423 4520 1
4423 4521 1
4424 259 1
4424 308 1
4424 309 1
4425 259 1
4425 308 1
4425 314 1
4426 308 1
4426 309 1
4426 313 1
4427 309 1
4427 313 1
4427 2626 1
4428 309 1
4428 313 1
4428 2626 1
4429 259 1
4429 260 1
4429 262 1
4430 309 1
4430 311 1
4430 2626 1
4431 308 1
4431 309 1
4431 313 1
4432 259 1
4432 260 1
4432 262 1
4433 308 1
4433 309 1
4433 313 1
4434 663 1
4434 1689 1
4434 1943 1
4435 265 1
4435 266 1
4435 267 1
4436 265 1
4436 266 1
4436 267 1
4437 265 1
4437 266 1
4437 267 1
4438 265 1
4438 266 1
4438 267 1
4439 265 1
4439 266 1
4439 267 1
4440 265 1
4440 266 1
4440 267 1
4441 257 1
4441 1672 1
4441 4306 1
4442 670 1
4442 776 1
4442 777 1
4443 670 1
4443 776 1
4443 777 1
4444 234 1
4444 244 1
4444 246 1
4445 234 1
4445 244 1
4445 246 1
4446 234 1
4446 244 1
4446 246 1
4447 234 1
4447 768 1
4447 4527 1
4448 234 1
4448 244 1
4448 245 1
4449 234 1
4449 245 1
4449 246 1
4450 234 1
4450 245 1
4450 246 1
4451 319 1
4451 1179 1
4451 1647 1
4452 319 1
4452 1179 1
4452 1647 1
4453 319 1
4453 1179 1
4453 1647 1
4454 456 1
4454 502 1
4454 512 1
4455 456 1
4455 502 1
4455 512 1
4456 456 1
4456 502 1
4456 512 1
4457 234 1
4457 236 1
4457 1015 1
4458 243 1
4458 771 1
4458 942 1
4459 236 1
4459 246 1
4459 768 1
4460 236 1
4460 246 1
4460 768 1
4461 236 1
4461 246 1
4461 768 1
4462 236 1
4462 246 1
4462 768 1
4463 234 1
4463 235 1
4463 244 1
4464 234 1
4464 235 1
4464 244 1
4465 234 1
4465 235 1
4465 244 1
4466 234 1
4466 235 1
4466 244 1
4467 234 1
4467 235 1
4467 244 1
4468 1084 1
4468 1133 1
4468 1175 1
4469 234 1
4469 244 1
4469 245 1
4470 234 1
4470 244 1
4470 245 1
4471 234 1
4471 244 1
4471 245 1
4472 234 1
4472 244 1
4472 245 1
4473 234 1
4473 244 1
4473 245 1
4474 234 1
4474 244 1
4474 245 1
4475 234 1
4475 244 1
4475 245 1
4476 234 1
4476 244 1
4476 245 1
4477 234 1
4477 244 1
4477 245 1
4478 234 1
4478 244 1
4478 245 1
4479 234 1
4479 244 1
4479 245 1
4480 234 1
4480 235 1
4480 245 1
4481 234 1
4481 244 1
4481 245 1
4482 232 1
4482 244 1
4482 245 1
4483 232 1
4483 245 1
4483 246 1
4484 244 1
4484 245 1
4484 502 1
4485 244 1
4485 245 1
4485 502 1
4486 234 1
4486 244 1
4486 245 1
4487 234 1
4487 235 1
4487 250 1
4488 259 1
4488 308 1
4488 309 1
4489 259 1
4489 308 1
4489 314 1
4490 234 1
4490 250 1
4490 768 1
4491 234 1
4491 244 1
4491 245 1
4492 234 1
4492 244 1
4492 245 1
4493 1086 1
4493 1116 1
4493 1863 1
4494 1086 1
4494 1116 1
4494 1863 1
4495 327 1
4495 2235 1
4495 3628 1
4496 327 1
4496 2235 1
4496 3628 1
4497 327 1
4497 2235 1
4497 3628 1
4498 942 1
4498 1096 1
4498 1571 1
4499 1039 1
4499 1068 1
4499 2174 1
4500 1031 1
4500 1068 1
4500 1116 1
4501 1039 1
4501 1068 1
4501 1077 1
4502 942 1
4502 1062 1
4502 1073 1
4503 1039 1
4503 1068 1
4503 2174 1
4504 1039 1
4504 1068 1
4504 2174 1
4505 1031 1
4505 1068 1
4505 1116 1
4506 1031 1
4506 1068 1
4506 1116 1
4507 1039 1
4507 1068 1
4507 1077 1
4508 1039 1
4508 1068 1
4508 2174 1
4509 1039 1
4509 1068 1
4509 2174 1
4510 213 1
4510 1115 1
4510 1158 1
4511 1031 1
4511 1068 1
4511 1116 1
4512 1039 1
4512 1068 1
4512 1077 1
4513 841 1
4513 1045 1
4513 1101 1
4514 669 1
4514 671 1
4514 894 1
4515 234 1
4515 235 1
4515 768 1
4516 235 1
4516 246 1
4516 768 1
4517 234 1
4517 245 1
4517 246 1
4518 234 1
4518 235 1
4518 236 1
4519 235 1
4519 246 1
4519 768 1
4520 234 1
4520 245 1
4520 246 1
4521 235 1
4521 246 1
4521 768 1
4522 259 1
4522 308 1
4522 309 1
4523 268 1
4523 489 1
4523 778 1
4524 776 1
4524 777 1
4524 894 1
4525 321 1
4525 450 1
4525 844 1
4526 319 1
4526 1647 1
4526 2983 1
4527 319 1
4527 1647 1
4527 2983 1
4528 319 1
4528 1647 1
4528 2983 1
4529 319 1
4529 1647 1
4529 2983 1
4530 259 1
4530 261 1
4530 262 1
4531 259 1
4531 308 1
4531 310 1
4532 1837 1
4532 1840 1
4532 1841 1
4533 234 1
4533 235 1
4533 768 1
4534 776 1
4534 777 1
4534 1924 1
4535 213 1
4535 1082 1
4535 1148 1
4536 213 1
4536 1036 1
4536 1082 1
4537 1073 1
4537 1125 1
4537 1136 1
4538 259 1
4538 260 1
4538 262 1
4539 259 1
4539 308 1
4539 314 1
4540 259 1
4540 309 1
4540 314 1
4541 259 1
4541 261 1
4541 262 1
4542 259 1
4542 308 1
4542 309 1
4543 259 1
4543 308 1
4543 309 1
4544 259 1
4544 308 1
4544 314 1
4545 259 1
4545 308 1
4545 314 1
4546 259 1
4546 261 1
4546 262 1
4547 234 1
4547 235 1
4547 768 1
4548 234 1
4548 244 1
4548 245 1
4549 234 1
4549 768 1
4549 1015 1
4550 307 1
4550 308 1
4550 309 1
4551 258 1
4551 310 1
4551 663 1
4552 265 1
4552 266 1
4552 267 1
4553 265 1
4553 266 1
4553 267 1
4554 265 1
4554 266 1
4554 267 1
4555 265 1
4555 266 1
4555 267 1
4556 456 1
4556 502 1
4556 512 1
4557 236 1
4557 246 1
4557 768 1
4558 234 1
4558 244 1
4558 246 1
4559 259 1
4559 308 1
4559 314 1
4560 308 1
4560 309 1
4560 313 1
4561 670 1
4561 776 1
4561 777 1
4562 670 1
4562 776 1
4562 1553 1
4563 179 1
4563 268 1
4563 489 1
4564 259 1
4564 309 1
4564 311 1
4565 259 1
4565 308 1
4565 309 1
4566 259 1
4566 309 1
4566 470 1
4567 179 1
4567 268 1
4567 489 1
4568 259 1
4568 309 1
4568 311 1
4569 236 1
4569 250 1
4569 768 1
4570 244 1
4570 358 1
4570 1014 1
4571 259 1
4571 308 1
4571 309 1
4572 259 1
4572 308 1
4572 309 1
4573 259 1
4573 309 1
4573 311 1
4574 259 1
4574 309 1
4574 313 1
4575 259 1
4575 308 1
4575 314 1
4576 670 1
4576 776 1
4576 777 1
4577 235 1
4577 246 1
4577 1555 1
4578 259 1
4578 261 1
4578 262 1
4579 259 1
4579 308 1
4579 314 1
4580 456 1
4580 502 1
4580 512 1
4581 307 1
4581 308 1
4581 309 1
4582 259 1
4582 261 1
4582 262 1
4583 235 1
4583 246 1
4583 768 1
4584 309 1
4584 783 1
4584 789 1
4585 221 1
4585 244 1
4585 358 1
4586 259 1
4586 308 1
4586 309 1
4587 779 1
4587 780 1
4587 781 1
4588 259 1
4588 309 1
4588 470 1
4589 308 1
4589 309 1
4589 313 1
4590 259 1
4590 309 1
4590 310 1
4591 259 1
4591 308 1
4591 314 1
4592 259 1
4592 308 1
4592 310 1
4593 259 1
4593 308 1
4593 314 1
4594 259 1
4594 308 1
4594 309 1
4595 259 1
4595 308 1
4595 309 1
4596 670 1
4596 776 1
4596 777 1
4597 259 1
4597 308 1
4597 309 1
4598 259 1
4598 309 1
4598 313 1
4599 308 1
4599 309 1
4599 313 1
4600 670 1
4600 777 1
4600 2296 1
4601 259 1
4601 309 1
4601 311 1
4602 259 1
4602 309 1
4602 311 1
4603 450 1
4603 456 1
4603 531 1
4604 259 1
4604 261 1
4604 262 1
4605 670 1
4605 776 1
4605 777 1
4606 259 1
4606 308 1
4606 309 1
4607 259 1
4607 308 1
4607 309 1
4608 259 1
4608 261 1
4608 262 1
4609 259 1
4609 309 1
4609 311 1
4610 259 1
4610 261 1
4610 262 1
4611 234 1
4611 235 1
4611 768 1
4612 234 1
4612 235 1
4612 768 1
4613 234 1
4613 235 1
4613 768 1
4614 776 1
4614 894 1
4614 1553 1
4615 308 1
4615 309 1
4615 313 1
4616 308 1
4616 309 1
4616 313 1
4617 259 1
4617 309 1
4617 313 1
4618 259 1
4618 308 1
4618 309 1
4619 221 1
4619 222 1
4619 309 1
4620 259 1
4620 308 1
4620 314 1
4621 450 1
4621 456 1
4621 531 1
4622 246 1
4622 250 1
4622 768 1
4623 221 1
4623 222 1
4623 309 1
4624 259 1
4624 308 1
4624 309 1
4625 259 1
4625 308 1
4625 314 1
4626 670 1
4626 776 1
4626 1553 1
4627 450 1
4627 456 1
4627 531 1
4628 246 1
4628 250 1
4628 768 1
4629 246 1
4629 250 1
4629 768 1
4630 259 1
4630 309 1
4630 311 1
4631 259 1
4631 308 1
4631 309 1
4632 234 1
4632 235 1
4632 768 1
4633 222 1
4633 234 1
4633 236 1
4634 222 1
4634 234 1
4634 236 1
4635 222 1
4635 234 1
4635 236 1
4636 312 1
4636 670 1
4636 1553 1
4637 312 1
4637 670 1
4637 777 1
4638 259 1
4638 308 1
4638 314 1
4639 268 1
4639 358 1
4639 489 1
4640 268 1
4640 358 1
4640 489 1
4641 456 1
4641 502 1
4641 512 1
4642 234 1
4642 235 1
4642 768 1
4643 450 1
4643 456 1
4643 531 1
4644 259 1
4644 308 1
4644 309 1
4645 259 1
4645 308 1
4645 309 1
4646 259 1
4646 309 1
4646 311 1
4647 259 1
4647 308 1
4647 309 1
4648 259 1
4648 1494 1
4648 1495 1
4649 259 1
4649 261 1
4649 506 1
4650 942 1
4650 1096 1
4650 1571 1
4651 1039 1
4651 1068 1
4651 1077 1
4652 259 1
4652 308 1
4652 314 1
4653 669 1
4653 1491 1
4653 1654 1
4654 259 1
4654 261 1
4654 262 1
4655 259 1
4655 308 1
4655 309 1
4656 259 1
4656 309 1
4656 313 1
4657 259 1
4657 309 1
4657 313 1
4658 259 1
4658 262 1
4658 1494 1
4659 259 1
4659 1494 1
4659 1495 1
4660 259 1
4660 309 1
4660 311 1
4661 259 1
4661 309 1
4661 311 1
4662 259 1
4662 309 1
4662 311 1
4663 234 1
4663 235 1
4663 768 1
4664 259 1
4664 308 1
4664 314 1
4665 308 1
4665 309 1
4665 313 1
4666 259 1
4666 308 1
4666 309 1
4667 235 1
4667 246 1
4667 768 1
4668 234 1
4668 236 1
4668 768 1
4669 268 1
4669 489 1
4669 778 1
4670 235 1
4670 246 1
4670 768 1
4671 245 1
4671 1647 1
4671 3417 1
4672 245 1
4672 1647 1
4672 3417 1
4673 268 1
4673 489 1
4673 778 1
4674 670 1
4674 776 1
4674 1553 1
4675 221 1
4675 222 1
4675 309 1
4676 232 1
4676 484 1
4676 485 1
4677 244 1
4677 358 1
4677 1014 1
4678 259 1
4678 308 1
4678 309 1
4679 261 1
4679 356 1
4679 828 1
4680 1084 1
4680 1133 1
4680 3367 1
4681 234 1
4681 235 1
4681 244 1
4682 234 1
4682 235 1
4682 244 1
4683 308 1
4683 309 1
4683 310 1
4684 258 1
4684 310 1
4684 663 1
4685 235 1
4685 246 1
4685 768 1
4686 235 1
4686 246 1
4686 768 1
4687 235 1
4687 246 1
4687 768 1
4688 235 1
4688 246 1
4688 768 1
4689 235 1
4689 246 1
4689 768 1
4690 235 1
4690 250 1
4690 768 1
4691 235 1
4691 250 1
4691 768 1
4692 259 1
4692 260 1
4692 262 1
4693 259 1
4693 260 1
4693 262 1
4694 307 1
4694 308 1
4694 663 1
4695 307 1
4695 308 1
4695 663 1
4696 259 1
4696 308 1
4696 309 1
4697 259 1
4697 308 1
4697 314 1
4698 1020 1
4698 1021 1
4698 1155 1
4699 1142 1
4699 2102 1
4699 4626 1
4700 234 1
4700 244 1
4700 245 1
4701 250 1
4701 768 1
4701 1555 1
4702 263 1
4702 310 1
4702 663 1
4703 263 1
4703 313 1
4703 663 1
4704 1046 1
4704 1074 1
4704 1145 1
4705 1049 1
4705 1878 1
4705 1879 1
4706 1049 1
4706 1878 1
4706 1879 1
4707 1049 1
4707 1878 1
4707 1879 1
4708 2998 1
4708 4654 1
4708 4655 1
4709 4645 1
4709 4646 1
4709 4648 1
4710 4645 1
4710 4646 1
4710 4648 1
4711 356 1
4711 498 1
4711 1493 1
4712 213 1
4712 355 1
4712 1556 1
4713 1064 1
4713 1450 1
4713 4313 1
4714 1064 1
4714 1450 1
4714 4313 1
4715 234 1
4715 235 1
4715 245 1
4716 234 1
4716 235 1
4716 245 1
4717 234 1
4717 235 1
4717 245 1
4718 234 1
4718 235 1
4718 245 1
4719 234 1
4719 244 1
4719 245 1
4720 234 1
4720 235 1
4720 768 1
4721 234 1
4721 244 1
4721 245 1
4722 777 1
4722 2050 1
4722 4671 1
4723 1094 1
4723 1536 1
4723 2200 1
4724 1023 1
4724 1160 1
4724 2949 1
4725 1020 1
4725 1023 1
4725 1160 1
4726 268 1
4726 489 1
4726 778 1
4727 268 1
4727 489 1
4727 778 1
4728 234 1
4728 235 1
4728 236 1
4729 234 1
4729 235 1
4729 768 1
4730 234 1
4730 235 1
4730 768 1
4731 234 1
4731 235 1
4731 768 1
4732 234 1
4732 235 1
4732 768 1
4733 1032 1
4733 1074 1
4733 1113 1
4734 234 1
4734 235 1
4734 236 1
4735 1048 1
4735 1085 1
4735 1111 1
4736 1048 1
4736 1101 1
4736 1125 1
4737 1048 1
4737 1094 1
4737 1136 1
4738 1048 1
4738 1125 1
4738 1136 1
4739 1048 1
4739 1105 1
4739 1136 1
4740 1020 1
4740 1032 1
4740 1040 1
4741 456 1
4741 502 1
4741 512 1
4742 456 1
4742 502 1
4742 512 1
4743 233 1
4743 268 1
4743 489 1
4744 233 1
4744 268 1
4744 489 1
4745 171 1
4745 268 1
4745 489 1
4746 171 1
4746 268 1
4746 489 1
4747 171 1
4747 268 1
4747 489 1
4748 234 1
4748 244 1
4748 245 1
4749 234 1
4749 246 1
4749 768 1
4750 234 1
4750 246 1
4750 768 1
4751 234 1
4751 246 1
4751 768 1
4752 234 1
4752 246 1
4752 768 1
4753 234 1
4753 246 1
4753 768 1
4754 234 1
4754 244 1
4754 250 1
4755 234 1
4755 244 1
4755 246 1
4756 235 1
4756 246 1
4756 768 1
4757 2150 1
4757 2270 1
4757 4692 1
4758 942 1
4758 2150 1
4758 4692 1
4759 2150 1
4759 2341 1
4759 4692 1
4760 465 1
4760 2636 1
4760 3286 1
4761 365 1
4761 495 1
4761 773 1
4762 234 1
4762 235 1
4762 244 1
4763 234 1
4763 235 1
4763 244 1
4764 234 1
4764 244 1
4764 246 1
4765 234 1
4765 235 1
4765 244 1
4766 234 1
4766 235 1
4766 244 1
4767 234 1
4767 235 1
4767 244 1
4768 234 1
4768 244 1
4768 502 1
4769 234 1
4769 235 1
4769 244 1
4770 234 1
4770 244 1
4770 246 1
4771 234 1
4771 235 1
4771 244 1
4772 234 1
4772 235 1
4772 244 1
4773 4685 1
4773 4697 1
4773 4698 1
4774 268 1
4774 359 1
4774 489 1
4775 268 1
4775 489 1
4775 1823 1
4776 235 1
4776 246 1
4776 768 1
4777 235 1
4777 246 1
4777 768 1
4778 235 1
4778 246 1
4778 768 1
4779 235 1
4779 246 1
4779 768 1
4780 235 1
4780 246 1
4780 768 1
4781 234 1
4781 236 1
4781 1563 1
4782 670 1
4782 777 1
4782 1569 1
4783 259 1
4783 309 1
4783 313 1
4784 776 1
4784 777 1
4784 1569 1
4785 259 1
4785 308 1
4785 309 1
4786 259 1
4786 308 1
4786 314 1
4787 670 1
4787 671 1
4787 776 1
4788 244 1
4788 1562 1
4788 2840 1
4789 259 1
4789 308 1
4789 314 1
4790 259 1
4790 308 1
4790 309 1
4791 259 1
4791 309 1
4791 311 1
4792 308 1
4792 309 1
4792 313 1
4793 259 1
4793 309 1
4793 313 1
4794 259 1
4794 309 1
4794 311 1
4795 259 1
4795 309 1
4795 313 1
4796 259 1
4796 309 1
4796 313 1
4797 450 1
4797 456 1
4797 531 1
4798 234 1
4798 246 1
4798 768 1
4799 234 1
4799 246 1
4799 768 1
4800 234 1
4800 246 1
4800 768 1
4801 234 1
4801 246 1
4801 768 1
4802 234 1
4802 246 1
4802 768 1
4803 234 1
4803 246 1
4803 768 1
4804 234 1
4804 246 1
4804 768 1
4805 234 1
4805 246 1
4805 768 1
4806 234 1
4806 246 1
4806 768 1
4807 234 1
4807 246 1
4807 768 1
4808 234 1
4808 246 1
4808 768 1
4809 234 1
4809 246 1
4809 768 1
4810 234 1
4810 246 1
4810 768 1
4811 670 1
4811 776 1
4811 1553 1
4812 776 1
4812 777 1
4812 894 1
4813 259 1
4813 260 1
4813 262 1
4814 259 1
4814 308 1
4814 311 1
4815 234 1
4815 246 1
4815 768 1
4816 670 1
4816 776 1
4816 2678 1
4817 670 1
4817 776 1
4817 2678 1
4818 670 1
4818 776 1
4818 777 1
4819 920 1
4819 2342 1
4819 3498 1
4820 920 1
4820 2342 1
4820 3498 1
4821 920 1
4821 2342 1
4821 3498 1
4822 776 1
4822 777 1
4822 894 1
4823 259 1
4823 260 1
4823 262 1
4824 233 1
4824 268 1
4824 489 1
4825 233 1
4825 268 1
4825 489 1
4826 171 1
4826 268 1
4826 489 1
4827 792 1
4827 3901 1
4827 4720 1
4828 792 1
4828 2102 1
4828 4721 1
4829 259 1
4829 309 1
4829 311 1
4830 259 1
4830 309 1
4830 311 1
4831 234 1
4831 236 1
4831 245 1
4832 234 1
4832 236 1
4832 245 1
4833 234 1
4833 236 1
4833 245 1
4834 234 1
4834 236 1
4834 245 1
4835 234 1
4835 244 1
4835 245 1
4836 234 1
4836 244 1
4836 245 1
4837 234 1
4837 236 1
4837 245 1
4838 234 1
4838 236 1
4838 245 1
4839 234 1
4839 236 1
4839 245 1
4840 234 1
4840 236 1
4840 245 1
4841 234 1
4841 236 1
4841 245 1
4842 234 1
4842 236 1
4842 245 1
4843 234 1
4843 236 1
4843 245 1
4844 234 1
4844 236 1
4844 244 1
4845 234 1
4845 236 1
4845 244 1
4846 234 1
4846 236 1
4846 245 1
4847 234 1
4847 244 1
4847 245 1
4848 234 1
4848 244 1
4848 245 1
4849 234 1
4849 244 1
4849 245 1
4850 234 1
4850 244 1
4850 245 1
4851 234 1
4851 244 1
4851 245 1
4852 234 1
4852 244 1
4852 245 1
4853 234 1
4853 244 1
4853 245 1
4854 234 1
4854 244 1
4854 245 1
4855 234 1
4855 244 1
4855 245 1
4856 234 1
4856 244 1
4856 245 1
4857 234 1
4857 244 1
4857 245 1
4858 234 1
4858 244 1
4858 245 1
4859 234 1
4859 244 1
4859 245 1
4860 234 1
4860 236 1
4860 245 1
4861 234 1
4861 236 1
4861 245 1
4862 2007 1
4862 2008 1
4862 4309 1
4863 2007 1
4863 4309 1
4863 4727 1
4864 4724 1
4864 4728 1
4864 4729 1
4865 776 1
4865 894 1
4865 1553 1
4866 235 1
4866 246 1
4866 250 1
4867 235 1
4867 246 1
4867 250 1
4868 235 1
4868 246 1
4868 250 1
4869 670 1
4869 776 1
4869 777 1
4870 307 1
4870 308 1
4870 309 1
4871 259 1
4871 308 1
4871 309 1
4872 259 1
4872 308 1
4872 309 1
4873 670 1
4873 776 1
4873 1553 1
4874 259 1
4874 308 1
4874 314 1
4875 259 1
4875 308 1
4875 314 1
4876 259 1
4876 308 1
4876 314 1
4877 308 1
4877 309 1
4877 313 1
4878 268 1
4878 489 1
4878 778 1
4879 465 1
4879 1083 1
4879 1622 1
4880 456 1
4880 502 1
4880 512 1
4881 456 1
4881 502 1
4881 512 1
4882 456 1
4882 502 1
4882 512 1
4883 456 1
4883 502 1
4883 512 1
4884 779 1
4884 780 1
4884 781 1
4885 450 1
4885 456 1
4885 531 1
4886 259 1
4886 261 1
4886 262 1
4887 308 1
4887 309 1
4887 313 1
4888 308 1
4888 309 1
4888 313 1
4889 232 1
4889 484 1
4889 485 1
4890 259 1
4890 309 1
4890 313 1
4891 259 1
4891 309 1
4891 313 1
4892 259 1
4892 261 1
4892 262 1
4893 259 1
4893 308 1
4893 309 1
4894 259 1
4894 308 1
4894 309 1
4895 259 1
4895 308 1
4895 314 1
4896 450 1
4896 456 1
4896 531 1
4897 456 1
4897 502 1
4897 512 1
4898 221 1
4898 222 1
4898 309 1
4899 259 1
4899 308 1
4899 309 1
4900 268 1
4900 489 1
4900 778 1
4901 670 1
4901 776 1
4901 777 1
4902 259 1
4902 309 1
4902 311 1
4903 234 1
4903 235 1
4903 236 1
4904 234 1
4904 236 1
4904 1015 1
4905 234 1
4905 244 1
4905 245 1
4906 1088 1
4906 1104 1
4906 1924 1
4907 1127 1
4907 1925 1
4907 1927 1
4908 1031 1
4908 2037 1
4908 3366 1
4909 1101 1
4909 1148 1
4909 1876 1
4910 1041 1
4910 2222 1
4910 4254 1
4911 2080 1
4911 4734 1
4911 4741 1
4912 1031 1
4912 2528 1
4912 4775 1
4913 234 1
4913 235 1
4913 768 1
4914 234 1
4914 244 1
4914 245 1
4915 259 1
4915 308 1
4915 309 1
4916 80 1
4916 450 1
4916 4064 1
4917 234 1
4917 236 1
4917 246 1
4918 234 1
4918 244 1
4918 245 1
4919 246 1
4919 250 1
4919 768 1
4920 246 1
4920 250 1
4920 768 1
4921 234 1
4921 235 1
4921 244 1
4922 234 1
4922 235 1
4922 244 1
4923 234 1
4923 235 1
4923 244 1
4924 234 1
4924 244 1
4924 245 1
4925 456 1
4925 502 1
4925 512 1
4926 456 1
4926 502 1
4926 512 1
4927 450 1
4927 456 1
4927 502 1
4928 1031 1
4928 1072 1
4928 2127 1
4929 234 1
4929 235 1
4929 236 1
4930 494 1
4930 669 1
4930 1862 1
4931 494 1
4931 669 1
4931 1862 1
4932 494 1
4932 669 1
4932 1862 1
4933 494 1
4933 669 1
4933 1862 1
4934 308 1
4934 309 1
4934 313 1
4935 234 1
4935 236 1
4935 768 1
4936 234 1
4936 236 1
4936 246 1
4937 234 1
4937 236 1
4937 245 1
4938 259 1
4938 308 1
4938 313 1
4939 259 1
4939 308 1
4939 314 1
4940 792 1
4940 1066 1
4940 2585 1
4941 776 1
4941 792 1
4941 2585 1
4942 1071 1
4942 1116 1
4942 1863 1
4943 1071 1
4943 1116 1
4943 1863 1
4944 262 1
4944 792 1
4944 2585 1
4945 792 1
4945 1118 1
4945 2585 1
4946 213 1
4946 1101 1
4946 2099 1
4947 942 1
4947 1023 1
4947 3003 1
4948 235 1
4948 250 1
4948 768 1
4949 235 1
4949 250 1
4949 768 1
4950 235 1
4950 250 1
4950 768 1
4951 235 1
4951 250 1
4951 768 1
4952 920 1
4952 2356 1
4952 2371 1
4953 234 1
4953 235 1
4953 245 1
4954 234 1
4954 235 1
4954 768 1
4955 234 1
4955 235 1
4955 246 1
4956 234 1
4956 235 1
4956 246 1
4957 234 1
4957 235 1
4957 246 1
4958 234 1
4958 235 1
4958 246 1
4959 234 1
4959 235 1
4959 246 1
4960 234 1
4960 235 1
4960 246 1
4961 234 1
4961 235 1
4961 246 1
4962 234 1
4962 235 1
4962 246 1
4963 234 1
4963 235 1
4963 246 1
4964 234 1
4964 235 1
4964 246 1
4965 234 1
4965 235 1
4965 246 1
4966 234 1
4966 235 1
4966 246 1
4967 234 1
4967 235 1
4967 246 1
4968 234 1
4968 235 1
4968 246 1
4969 234 1
4969 235 1
4969 246 1
4970 1020 1
4970 1021 1
4970 1022 1
4971 259 1
4971 308 1
4971 663 1
4972 234 1
4972 244 1
4972 245 1
4973 234 1
4973 244 1
4973 245 1
4974 261 1
4974 356 1
4974 828 1
4975 259 1
4975 261 1
4975 262 1
4976 259 1
4976 308 1
4976 309 1
4977 259 1
4977 309 1
4977 310 1
4978 259 1
4978 308 1
4978 309 1
4979 259 1
4979 261 1
4979 262 1
4980 259 1
4980 261 1
4980 262 1
4981 259 1
4981 261 1
4981 262 1
4982 259 1
4982 261 1
4982 262 1
4983 259 1
4983 261 1
4983 262 1
4984 259 1
4984 261 1
4984 262 1
4985 259 1
4985 261 1
4985 262 1
4986 776 1
4986 777 1
4986 1569 1
4987 321 1
4987 322 1
4987 345 1
4988 670 1
4988 776 1
4988 777 1
4989 670 1
4989 776 1
4989 777 1
4990 670 1
4990 776 1
4990 777 1
4991 308 1
4991 313 1
4991 663 1
4992 308 1
4992 313 1
4992 663 1
4993 312 1
4993 367 1
4993 669 1
4994 312 1
4994 367 1
4994 669 1
4995 308 1
4995 309 1
4995 313 1
4996 308 1
4996 309 1
4996 310 1
4997 307 1
4997 308 1
4997 309 1
4998 268 1
4998 489 1
4998 778 1
4999 776 1
4999 777 1
4999 1569 1
5000 171 1
5000 268 1
5000 489 1
5001 171 1
5001 268 1
5001 489 1
5002 233 1
5002 268 1
5002 489 1
5003 307 1
5003 308 1
5003 663 1
5004 233 1
5004 268 1
5004 489 1
5005 221 1
5005 222 1
5005 309 1
5006 259 1
5006 260 1
5006 262 1
5007 171 1
5007 268 1
5007 489 1
5008 171 1
5008 268 1
5008 489 1
5009 268 1
5009 489 1
5009 778 1
5010 259 1
5010 308 1
5010 309 1
5011 307 1
5011 308 1
5011 663 1
5012 233 1
5012 268 1
5012 489 1
5013 308 1
5013 310 1
5013 663 1
5014 259 1
5014 262 1
5014 2852 1
5015 670 1
5015 776 1
5015 777 1
5016 670 1
5016 776 1
5016 777 1
5017 234 1
5017 235 1
5017 245 1
5018 234 1
5018 235 1
5018 245 1
5019 234 1
5019 235 1
5019 245 1
5020 1169 1
5020 1179 1
5020 1491 1
5021 236 1
5021 246 1
5021 768 1
5022 236 1
5022 246 1
5022 768 1
5023 236 1
5023 246 1
5023 768 1
5024 236 1
5024 246 1
5024 768 1
5025 236 1
5025 246 1
5025 768 1
5026 234 1
5026 236 1
5026 1563 1
5027 235 1
5027 246 1
5027 768 1
5028 236 1
5028 246 1
5028 768 1
5029 236 1
5029 246 1
5029 768 1
5030 246 1
5030 250 1
5030 768 1
5031 236 1
5031 246 1
5031 768 1
5032 236 1
5032 246 1
5032 768 1
5033 236 1
5033 246 1
5033 768 1
5034 236 1
5034 246 1
5034 768 1
5035 236 1
5035 246 1
5035 768 1
5036 236 1
5036 246 1
5036 768 1
5037 246 1
5037 250 1
5037 768 1
5038 246 1
5038 250 1
5038 768 1
5039 236 1
5039 246 1
5039 768 1
5040 236 1
5040 246 1
5040 768 1
5041 236 1
5041 246 1
5041 768 1
5042 236 1
5042 246 1
5042 768 1
5043 236 1
5043 246 1
5043 768 1
5044 246 1
5044 250 1
5044 768 1
5045 236 1
5045 246 1
5045 768 1
5046 236 1
5046 246 1
5046 768 1
5047 236 1
5047 246 1
5047 768 1
5048 236 1
5048 246 1
5048 768 1
5049 246 1
5049 250 1
5049 768 1
5050 236 1
5050 246 1
5050 768 1
5051 236 1
5051 246 1
5051 768 1
5052 236 1
5052 246 1
5052 768 1
5053 246 1
5053 250 1
5053 768 1
5054 246 1
5054 250 1
5054 768 1
5055 236 1
5055 246 1
5055 768 1
5056 246 1
5056 250 1
5056 768 1
5057 236 1
5057 246 1
5057 768 1
5058 236 1
5058 246 1
5058 768 1
5059 246 1
5059 250 1
5059 768 1
5060 236 1
5060 246 1
5060 768 1
5061 236 1
5061 246 1
5061 768 1
5062 236 1
5062 246 1
5062 768 1
5063 236 1
5063 246 1
5063 768 1
5064 236 1
5064 246 1
5064 768 1
5065 236 1
5065 246 1
5065 768 1
5066 236 1
5066 246 1
5066 768 1
5067 235 1
5067 246 1
5067 768 1
5068 235 1
5068 246 1
5068 768 1
5069 246 1
5069 250 1
5069 768 1
5070 246 1
5070 250 1
5070 768 1
5071 236 1
5071 246 1
5071 768 1
5072 246 1
5072 250 1
5072 768 1
5073 246 1
5073 250 1
5073 768 1
5074 246 1
5074 250 1
5074 768 1
5075 236 1
5075 246 1
5075 768 1
5076 236 1
5076 246 1
5076 768 1
5077 236 1
5077 246 1
5077 768 1
5078 236 1
5078 246 1
5078 768 1
5079 236 1
5079 246 1
5079 768 1
5080 236 1
5080 246 1
5080 768 1
5081 236 1
5081 246 1
5081 768 1
5082 236 1
5082 246 1
5082 768 1
5083 236 1
5083 246 1
5083 768 1
5084 236 1
5084 246 1
5084 768 1
5085 236 1
5085 246 1
5085 768 1
5086 236 1
5086 246 1
5086 768 1
5087 236 1
5087 246 1
5087 768 1
5088 236 1
5088 246 1
5088 768 1
5089 236 1
5089 246 1
5089 768 1
5090 246 1
5090 250 1
5090 768 1
5091 246 1
5091 250 1
5091 768 1
5092 236 1
5092 246 1
5092 768 1
5093 236 1
5093 246 1
5093 768 1
5094 246 1
5094 250 1
5094 768 1
5095 246 1
5095 250 1
5095 768 1
5096 234 1
5096 245 1
5096 246 1
5097 234 1
5097 235 1
5097 768 1
5098 268 1
5098 489 1
5098 778 1
5099 234 1
5099 236 1
5099 244 1
5100 234 1
5100 236 1
5100 768 1
5101 234 1
5101 235 1
5101 768 1
5102 234 1
5102 235 1
5102 768 1
5103 234 1
5103 236 1
5103 768 1
5104 259 1
5104 260 1
5104 262 1
5105 260 1
5105 261 1
5105 262 1
5106 263 1
5106 309 1
5106 820 1
5107 259 1
5107 260 1
5107 262 1
5108 259 1
5108 262 1
5108 2852 1
5109 234 1
5109 235 1
5109 768 1
5110 222 1
5110 234 1
5110 236 1
5111 259 1
5111 309 1
5111 310 1
5112 259 1
5112 309 1
5112 310 1
5113 259 1
5113 309 1
5113 310 1
5114 259 1
5114 309 1
5114 310 1
5115 258 1
5115 310 1
5115 663 1
5116 259 1
5116 261 1
5116 262 1
5117 308 1
5117 669 1
5117 776 1
5118 2380 1
5118 2407 1
5118 4869 1
5119 2382 1
5119 2528 1
5119 2965 1
5120 268 1
5120 489 1
5120 778 1
5121 308 1
5121 309 1
5121 313 1
5122 259 1
5122 309 1
5122 313 1
5123 259 1
5123 309 1
5123 311 1
5124 259 1
5124 308 1
5124 314 1
5125 259 1
5125 309 1
5125 313 1
5126 308 1
5126 309 1
5126 313 1
5127 259 1
5127 309 1
5127 313 1
5128 259 1
5128 309 1
5128 313 1
5129 259 1
5129 309 1
5129 313 1
5130 259 1
5130 309 1
5130 311 1
5131 259 1
5131 309 1
5131 311 1
5132 259 1
5132 309 1
5132 313 1
5133 259 1
5133 309 1
5133 313 1
5134 259 1
5134 309 1
5134 313 1
5135 259 1
5135 309 1
5135 311 1
5136 259 1
5136 309 1
5136 313 1
5137 308 1
5137 309 1
5137 313 1
5138 308 1
5138 309 1
5138 313 1
5139 308 1
5139 309 1
5139 313 1
5140 259 1
5140 309 1
5140 311 1
5141 259 1
5141 309 1
5141 311 1
5142 259 1
5142 309 1
5142 313 1
5143 308 1
5143 309 1
5143 313 1
5144 259 1
5144 309 1
5144 313 1
5145 308 1
5145 309 1
5145 313 1
5146 259 1
5146 309 1
5146 311 1
5147 259 1
5147 308 1
5147 309 1
5148 259 1
5148 308 1
5148 309 1
5149 259 1
5149 309 1
5149 311 1
5150 259 1
5150 308 1
5150 309 1
5151 259 1
5151 309 1
5151 311 1
5152 259 1
5152 308 1
5152 309 1
5153 259 1
5153 308 1
5153 309 1
5154 259 1
5154 308 1
5154 314 1
5155 259 1
5155 1494 1
5155 1495 1
5156 259 1
5156 262 1
5156 1494 1
5157 259 1
5157 309 1
5157 310 1
5158 259 1
5158 308 1
5158 309 1
5159 259 1
5159 308 1
5159 314 1
5160 259 1
5160 308 1
5160 309 1
5161 259 1
5161 309 1
5161 311 1
5162 259 1
5162 309 1
5162 313 1
5163 670 1
5163 776 1
5163 777 1
5164 259 1
5164 308 1
5164 314 1
5165 259 1
5165 308 1
5165 310 1
5166 221 1
5166 222 1
5166 309 1
5167 261 1
5167 310 1
5167 1490 1
5168 259 1
5168 308 1
5168 314 1
5169 308 1
5169 309 1
5169 313 1
5170 307 1
5170 308 1
5170 309 1
5171 235 1
5171 246 1
5171 768 1
5172 235 1
5172 246 1
5172 768 1
5173 465 1
5173 1083 1
5173 1622 1
5174 268 1
5174 489 1
5174 778 1
5175 268 1
5175 489 1
5175 778 1
5176 259 1
5176 308 1
5176 314 1
5177 259 1
5177 308 1
5177 309 1
5178 259 1
5178 261 1
5178 262 1
5179 456 1
5179 502 1
5179 512 1
5180 456 1
5180 502 1
5180 512 1
5181 259 1
5181 309 1
5181 313 1
5182 259 1
5182 308 1
5182 309 1
5183 259 1
5183 309 1
5183 313 1
5184 259 1
5184 309 1
5184 313 1
5185 259 1
5185 309 1
5185 313 1
5186 308 1
5186 309 1
5186 313 1
5187 259 1
5187 309 1
5187 313 1
5188 259 1
5188 308 1
5188 309 1
5189 259 1
5189 309 1
5189 311 1
5190 259 1
5190 309 1
5190 470 1
5191 307 1
5191 308 1
5191 309 1
5192 259 1
5192 309 1
5192 311 1
5193 259 1
5193 308 1
5193 314 1
5194 259 1
5194 308 1
5194 314 1
5195 259 1
5195 308 1
5195 309 1
5196 259 1
5196 309 1
5196 311 1
5197 259 1
5197 1494 1
5197 1495 1
5198 232 1
5198 484 1
5198 485 1
5199 259 1
5199 309 1
5199 310 1
5200 259 1
5200 309 1
5200 311 1
5201 670 1
5201 776 1
5201 777 1
5202 670 1
5202 776 1
5202 777 1
5203 259 1
5203 262 1
5203 310 1
5204 259 1
5204 262 1
5204 310 1
5205 308 1
5205 309 1
5205 313 1
5206 259 1
5206 308 1
5206 314 1
5207 244 1
5207 358 1
5207 1014 1
5208 235 1
5208 246 1
5208 768 1
5209 259 1
5209 308 1
5209 314 1
5210 259 1
5210 308 1
5210 314 1
5211 308 1
5211 309 1
5211 313 1
5212 179 1
5212 268 1
5212 489 1
5213 307 1
5213 308 1
5213 309 1
5214 259 1
5214 261 1
5214 262 1
5215 221 1
5215 222 1
5215 309 1
5216 259 1
5216 262 1
5216 1494 1
5217 221 1
5217 222 1
5217 309 1
5218 776 1
5218 894 1
5218 1553 1
5219 259 1
5219 308 1
5219 310 1
5220 268 1
5220 489 1
5220 778 1
5221 308 1
5221 309 1
5221 313 1
5222 259 1
5222 308 1
5222 314 1
5223 259 1
5223 308 1
5223 314 1
5224 259 1
5224 308 1
5224 314 1
5225 259 1
5225 308 1
5225 314 1
5226 308 1
5226 309 1
5226 313 1
5227 259 1
5227 308 1
5227 309 1
5228 259 1
5228 308 1
5228 309 1
5229 259 1
5229 309 1
5229 313 1
5230 259 1
5230 261 1
5230 506 1
5231 268 1
5231 489 1
5231 778 1
5232 259 1
5232 261 1
5232 262 1
5233 259 1
5233 308 1
5233 309 1
5234 259 1
5234 308 1
5234 314 1
5235 776 1
5235 777 1
5235 1569 1
5236 259 1
5236 261 1
5236 262 1
5237 259 1
5237 262 1
5237 1494 1
5238 670 1
5238 776 1
5238 1553 1
5239 259 1
5239 309 1
5239 310 1
5240 259 1
5240 308 1
5240 309 1
5241 234 1
5241 235 1
5241 768 1
5242 234 1
5242 244 1
5242 245 1
5243 234 1
5243 244 1
5243 245 1
5244 234 1
5244 235 1
5244 245 1
5245 234 1
5245 244 1
5245 245 1
5246 844 1
5246 1139 1
5246 1864 1
5247 307 1
5247 308 1
5247 663 1
5248 259 1
5248 309 1
5248 311 1
5249 259 1
5249 308 1
5249 309 1
5250 259 1
5250 309 1
5250 311 1
5251 259 1
5251 308 1
5251 309 1
5252 259 1
5252 309 1
5252 311 1
5253 259 1
5253 308 1
5253 309 1
5254 259 1
5254 309 1
5254 311 1
5255 259 1
5255 308 1
5255 309 1
5256 259 1
5256 309 1
5256 311 1
5257 259 1
5257 308 1
5257 309 1
5258 259 1
5258 309 1
5258 311 1
5259 259 1
5259 308 1
5259 309 1
5260 259 1
5260 309 1
5260 311 1
5261 259 1
5261 308 1
5261 309 1
5262 259 1
5262 309 1
5262 311 1
5263 259 1
5263 308 1
5263 309 1
5264 259 1
5264 309 1
5264 311 1
5265 259 1
5265 308 1
5265 309 1
5266 259 1
5266 309 1
5266 311 1
5267 259 1
5267 309 1
5267 311 1
5268 259 1
5268 309 1
5268 311 1
5269 259 1
5269 309 1
5269 311 1
5270 259 1
5270 308 1
5270 309 1
5271 259 1
5271 308 1
5271 309 1
5272 259 1
5272 309 1
5272 470 1
5273 308 1
5273 310 1
5273 663 1
5274 1160 1
5274 2102 1
5274 4626 1
5275 2568 1
5275 3901 1
5275 4927 1
5276 1067 1
5276 4935 1
5276 4936 1
5277 1101 1
5277 2258 1
5277 3552 1
5278 99 1
5278 100 1
5278 603 1
5279 99 1
5279 100 1
5279 603 1
5280 99 1
5280 100 1
5280 603 1
5281 99 1
5281 100 1
5281 603 1
5282 99 1
5282 100 1
5282 603 1
5283 99 1
5283 100 1
5283 603 1
5284 456 1
5284 502 1
5284 512 1
5285 456 1
5285 502 1
5285 512 1
5286 234 1
5286 235 1
5286 236 1
5287 234 1
5287 235 1
5287 244 1
5288 244 1
5288 792 1
5288 3901 1
5289 244 1
5289 792 1
5289 1118 1
5290 244 1
5290 792 1
5290 3901 1
5291 234 1
5291 235 1
5291 236 1
5292 234 1
5292 235 1
5292 236 1
5293 235 1
5293 768 1
5293 1555 1
5294 235 1
5294 768 1
5294 1555 1
5295 235 1
5295 768 1
5295 1555 1
5296 352 1
5296 967 1
5296 968 1
5297 261 1
5297 263 1
5297 339 1
5298 1043 1
5298 1101 1
5298 3367 1
5299 1328 1
5299 3466 1
5299 4352 1
5300 1328 1
5300 3466 1
5300 4352 1
5301 1328 1
5301 3466 1
5301 4352 1
5302 1328 1
5302 3466 1
5302 4352 1
5303 1328 1
5303 3466 1
5303 4352 1
5304 1224 1
5304 1239 1
5304 1345 1
5305 1224 1
5305 1239 1
5305 1345 1
5306 1224 1
5306 1239 1
5306 1345 1
5307 1346 1
5307 1347 1
5307 2829 1
5308 1346 1
5308 1347 1
5308 2829 1
5309 1245 1
5309 1246 1
5309 1352 1
5310 1245 1
5310 1246 1
5310 1352 1
5311 147 1
5311 1255 1
5311 1256 1
5312 147 1
5312 1255 1
5312 1256 1
5313 1290 1
5313 1291 1
5313 1292 1
5314 1290 1
5314 1291 1
5314 1292 1
5315 1290 1
5315 1291 1
5315 1292 1
5316 1290 1
5316 1291 1
5316 1292 1
5317 1316 1
5317 3884 1
5317 4267 1
5318 1316 1
5318 3884 1
5318 4267 1
5319 259 1
5319 260 1
5319 262 1
5320 234 1
5320 235 1
5320 768 1
5321 234 1
5321 235 1
5321 768 1
5322 234 1
5322 244 1
5322 768 1
5323 776 1
5323 777 1
5323 1569 1
5324 776 1
5324 777 1
5324 1569 1
5325 259 1
5325 309 1
5325 313 1
5326 263 1
5326 309 1
5326 820 1
5327 780 1
5327 781 1
5327 786 1
5328 235 1
5328 246 1
5328 768 1
5329 234 1
5329 236 1
5329 768 1
5330 234 1
5330 236 1
5330 768 1
5331 234 1
5331 235 1
5331 244 1
5332 234 1
5332 235 1
5332 244 1
5333 234 1
5333 235 1
5333 244 1
5334 234 1
5334 235 1
5334 768 1
5335 234 1
5335 235 1
5335 244 1
5336 234 1
5336 235 1
5336 244 1
5337 235 1
5337 236 1
5337 250 1
5338 234 1
5338 235 1
5338 245 1
5339 234 1
5339 235 1
5339 245 1
5340 234 1
5340 235 1
5340 245 1
5341 234 1
5341 236 1
5341 244 1
5342 234 1
5342 236 1
5342 245 1
5343 87 1
5343 409 1
5343 731 1
5344 87 1
5344 409 1
5344 731 1
5345 87 1
5345 409 1
5345 731 1
5346 87 1
5346 409 1
5346 731 1
5347 87 1
5347 409 1
5347 731 1
5348 234 1
5348 235 1
5348 236 1
5349 234 1
5349 235 1
5349 768 1
5350 234 1
5350 235 1
5350 236 1
5351 234 1
5351 235 1
5351 768 1
5352 235 1
5352 236 1
5352 768 1
5353 221 1
5353 222 1
5353 309 1
5354 179 1
5354 268 1
5354 489 1
5355 776 1
5355 777 1
5355 894 1
5356 670 1
5356 777 1
5356 2296 1
5357 670 1
5357 777 1
5357 2296 1
5358 259 1
5358 308 1
5358 309 1
5359 259 1
5359 308 1
5359 314 1
5360 259 1
5360 308 1
5360 314 1
5361 308 1
5361 309 1
5361 313 1
5362 221 1
5362 222 1
5362 309 1
5363 670 1
5363 776 1
5363 1763 1
5364 234 1
5364 235 1
5364 245 1
5365 234 1
5365 250 1
5365 768 1
5366 234 1
5366 235 1
5366 244 1
5367 234 1
5367 235 1
5367 244 1
5368 234 1
5368 235 1
5368 244 1
5369 234 1
5369 235 1
5369 244 1
5370 234 1
5370 235 1
5370 244 1
5371 1155 1
5371 2143 1
5371 2526 1
5372 1022 1
5372 1046 1
5372 1125 1
5373 234 1
5373 235 1
5373 768 1
5374 1015 1
5374 1545 1
5374 1563 1
5375 259 1
5375 260 1
5375 262 1
5376 171 1
5376 268 1
5376 489 1
5377 171 1
5377 268 1
5377 489 1
5378 260 1
5378 261 1
5378 262 1
5379 235 1
5379 246 1
5379 768 1
5380 234 1
5380 235 1
5380 244 1
5381 234 1
5381 235 1
5381 245 1
5382 234 1
5382 235 1
5382 245 1
5383 234 1
5383 235 1
5383 245 1
5384 234 1
5384 235 1
5384 245 1
5385 234 1
5385 235 1
5385 245 1
5386 234 1
5386 235 1
5386 245 1
5387 234 1
5387 235 1
5387 768 1
5388 670 1
5388 776 1
5388 1553 1
5389 308 1
5389 309 1
5389 313 1
5390 259 1
5390 308 1
5390 309 1
5391 5007 1
5391 5008 1
5391 5009 1
5392 2640 1
5392 5010 1
5392 5011 1
5393 309 1
5393 1494 1
5393 1943 1
5394 263 1
5394 309 1
5394 1689 1
5395 1621 1
5395 4367 1
5395 4368 1
5396 259 1
5396 261 1
5396 262 1
5397 259 1
5397 308 1
5397 309 1
5398 259 1
5398 308 1
5398 309 1
5399 259 1
5399 308 1
5399 314 1
5400 259 1
5400 261 1
5400 262 1
5401 259 1
5401 309 1
5401 313 1
5402 259 1
5402 308 1
5402 309 1
5403 259 1
5403 308 1
5403 314 1
5404 259 1
5404 308 1
5404 309 1
5405 259 1
5405 308 1
5405 314 1
5406 259 1
5406 309 1
5406 313 1
5407 259 1
5407 308 1
5407 309 1
5408 259 1
5408 308 1
5408 314 1
5409 261 1
5409 356 1
5409 822 1
5410 259 1
5410 308 1
5410 309 1
5411 259 1
5411 261 1
5411 262 1
5412 259 1
5412 308 1
5412 314 1
5413 259 1
5413 309 1
5413 310 1
5414 261 1
5414 310 1
5414 1490 1
5415 259 1
5415 261 1
5415 262 1
5416 259 1
5416 309 1
5416 313 1
5417 259 1
5417 262 1
5417 1494 1
5418 259 1
5418 309 1
5418 310 1
5419 259 1
5419 309 1
5419 313 1
5420 312 1
5420 670 1
5420 777 1
5421 312 1
5421 670 1
5421 1924 1
5422 670 1
5422 1924 1
5422 2296 1
5423 234 1
5423 235 1
5423 245 1
5424 234 1
5424 235 1
5424 245 1
5425 670 1
5425 776 1
5425 777 1
5426 670 1
5426 776 1
5426 777 1
5427 670 1
5427 776 1
5427 777 1
5428 776 1
5428 804 1
5428 2678 1
5429 259 1
5429 262 1
5429 2852 1
5430 259 1
5430 262 1
5430 2852 1
5431 234 1
5431 245 1
5431 246 1
5432 234 1
5432 245 1
5432 246 1
5433 234 1
5433 236 1
5433 245 1
5434 234 1
5434 236 1
5434 245 1
5435 234 1
5435 236 1
5435 245 1
5436 234 1
5436 236 1
5436 245 1
5437 236 1
5437 250 1
5437 768 1
5438 259 1
5438 309 1
5438 313 1
5439 259 1
5439 261 1
5439 1693 1
5440 268 1
5440 489 1
5440 778 1
5441 261 1
5441 356 1
5441 822 1
5442 261 1
5442 310 1
5442 1490 1
5443 259 1
5443 261 1
5443 262 1
5444 259 1
5444 308 1
5444 309 1
5445 259 1
5445 309 1
5445 311 1
5446 670 1
5446 776 1
5446 1553 1
5447 259 1
5447 309 1
5447 311 1
5448 259 1
5448 308 1
5448 309 1
5449 259 1
5449 308 1
5449 314 1
5450 259 1
5450 309 1
5450 310 1
5451 259 1
5451 309 1
5451 313 1
5452 308 1
5452 309 1
5452 313 1
5453 222 1
5453 234 1
5453 236 1
5454 259 1
5454 308 1
5454 309 1
5455 259 1
5455 308 1
5455 314 1
5456 259 1
5456 308 1
5456 314 1
5457 308 1
5457 309 1
5457 313 1
5458 268 1
5458 489 1
5458 778 1
5459 221 1
5459 222 1
5459 309 1
5460 259 1
5460 308 1
5460 309 1
5461 259 1
5461 308 1
5461 309 1
5462 259 1
5462 262 1
5462 1494 1
5463 259 1
5463 308 1
5463 309 1
5464 308 1
5464 669 1
5464 776 1
5465 308 1
5465 669 1
5465 776 1
5466 232 1
5466 469 1
5466 1953 1
5467 232 1
5467 309 1
5467 484 1
5468 226 1
5468 1565 1
5468 1936 1
5469 226 1
5469 1565 1
5469 1936 1
5470 227 1
5470 1565 1
5470 4821 1
5471 232 1
5471 469 1
5471 1953 1
5472 234 1
5472 245 1
5472 246 1
5473 234 1
5473 245 1
5473 246 1
5474 234 1
5474 245 1
5474 246 1
5475 234 1
5475 245 1
5475 246 1
5476 234 1
5476 245 1
5476 246 1
5477 234 1
5477 245 1
5477 246 1
5478 234 1
5478 235 1
5478 3568 1
5479 234 1
5479 768 1
5479 1555 1
5480 234 1
5480 244 1
5480 245 1
5481 234 1
5481 768 1
5481 1555 1
5482 234 1
5482 244 1
5482 245 1
5483 234 1
5483 235 1
5483 244 1
5484 234 1
5484 235 1
5484 244 1
5485 268 1
5485 489 1
5485 778 1
5486 259 1
5486 260 1
5486 262 1
5487 312 1
5487 777 1
5487 894 1
5488 221 1
5488 222 1
5488 309 1
5489 232 1
5489 484 1
5489 485 1
5490 268 1
5490 489 1
5490 778 1
5491 268 1
5491 489 1
5491 778 1
5492 670 1
5492 777 1
5492 2296 1
5493 259 1
5493 308 1
5493 314 1
5494 308 1
5494 309 1
5494 313 1
5495 259 1
5495 308 1
5495 314 1
5496 259 1
5496 308 1
5496 314 1
5497 259 1
5497 308 1
5497 309 1
5498 259 1
5498 308 1
5498 309 1
5499 268 1
5499 489 1
5499 778 1
5500 776 1
5500 894 1
5500 2678 1
5501 670 1
5501 776 1
5501 1553 1
5502 259 1
5502 308 1
5502 314 1
5503 259 1
5503 308 1
5503 314 1
5504 259 1
5504 308 1
5504 314 1
5505 259 1
5505 308 1
5505 314 1
5506 670 1
5506 776 1
5506 777 1
5507 259 1
5507 260 1
5507 262 1
5508 234 1
5508 236 1
5508 245 1
5509 259 1
5509 261 1
5509 262 1
5510 261 1
5510 310 1
5510 1490 1
5511 261 1
5511 356 1
5511 822 1
5512 259 1
5512 262 1
5512 1494 1
5513 309 1
5513 310 1
5513 774 1
5514 670 1
5514 776 1
5514 1553 1
5515 259 1
5515 261 1
5515 262 1
5516 259 1
5516 309 1
5516 313 1
5517 268 1
5517 489 1
5517 778 1
5518 268 1
5518 489 1
5518 778 1
5519 776 1
5519 777 1
5519 894 1
5520 234 1
5520 235 1
5520 236 1
5521 234 1
5521 235 1
5521 236 1
5522 222 1
5522 236 1
5522 1563 1
5523 234 1
5523 236 1
5523 768 1
5524 234 1
5524 236 1
5524 768 1
5525 234 1
5525 235 1
5525 245 1
5526 234 1
5526 235 1
5526 245 1
5527 234 1
5527 235 1
5527 245 1
5528 234 1
5528 235 1
5528 245 1
5529 234 1
5529 236 1
5529 768 1
5530 234 1
5530 235 1
5530 244 1
5531 234 1
5531 235 1
5531 245 1
5532 234 1
5532 236 1
5532 768 1
5533 222 1
5533 236 1
5533 1563 1
5534 222 1
5534 236 1
5534 1563 1
5535 222 1
5535 236 1
5535 1563 1
5536 222 1
5536 236 1
5536 1563 1
5537 222 1
5537 236 1
5537 1563 1
5538 222 1
5538 236 1
5538 1563 1
5539 776 1
5539 894 1
5539 1569 1
5540 776 1
5540 894 1
5540 1569 1
5541 776 1
5541 777 1
5541 894 1
5542 776 1
5542 894 1
5542 1569 1
5543 456 1
5543 502 1
5543 512 1
5544 456 1
5544 502 1
5544 512 1
5545 268 1
5545 358 1
5545 489 1
5546 259 1
5546 309 1
5546 314 1
5547 259 1
5547 261 1
5547 262 1
5548 259 1
5548 308 1
5548 314 1
5549 268 1
5549 489 1
5549 778 1
5550 308 1
5550 309 1
5550 313 1
5551 259 1
5551 308 1
5551 310 1
5552 308 1
5552 309 1
5552 313 1
5553 259 1
5553 308 1
5553 314 1
5554 259 1
5554 308 1
5554 309 1
5555 259 1
5555 308 1
5555 314 1
5556 259 1
5556 308 1
5556 314 1
5557 259 1
5557 309 1
5557 311 1
5558 259 1
5558 308 1
5558 309 1
5559 259 1
5559 308 1
5559 309 1
5560 259 1
5560 309 1
5560 314 1
5561 259 1
5561 308 1
5561 314 1
5562 308 1
5562 309 1
5562 313 1
5563 670 1
5563 776 1
5563 1553 1
5564 259 1
5564 309 1
5564 311 1
5565 259 1
5565 309 1
5565 313 1
5566 259 1
5566 262 1
5566 1494 1
5567 261 1
5567 356 1
5567 828 1
5568 259 1
5568 308 1
5568 309 1
5569 268 1
5569 489 1
5569 778 1
5570 235 1
5570 246 1
5570 768 1
5571 221 1
5571 222 1
5571 309 1
5572 259 1
5572 308 1
5572 309 1
5573 259 1
5573 308 1
5573 314 1
5574 259 1
5574 308 1
5574 309 1
5575 259 1
5575 308 1
5575 314 1
5576 259 1
5576 308 1
5576 314 1
5577 259 1
5577 308 1
5577 314 1
5578 259 1
5578 308 1
5578 309 1
5579 259 1
5579 308 1
5579 309 1
5580 259 1
5580 309 1
5580 314 1
5581 259 1
5581 262 1
5581 1494 1
5582 259 1
5582 308 1
5582 309 1
5583 259 1
5583 309 1
5583 311 1
5584 221 1
5584 222 1
5584 309 1
5585 234 1
5585 244 1
5585 245 1
5586 234 1
5586 244 1
5586 245 1
5587 234 1
5587 235 1
5587 768 1
5588 234 1
5588 235 1
5588 236 1
5589 234 1
5589 235 1
5589 236 1
5590 234 1
5590 235 1
5590 236 1
5591 234 1
5591 235 1
5591 236 1
5592 234 1
5592 235 1
5592 236 1
5593 359 1
5593 1985 1
5593 3286 1
5594 307 1
5594 308 1
5594 309 1
5595 307 1
5595 308 1
5595 309 1
5596 308 1
5596 309 1
5596 310 1
5597 259 1
5597 262 1
5597 2852 1
5598 670 1
5598 776 1
5598 777 1
5599 259 1
5599 260 1
5599 262 1
5600 259 1
5600 260 1
5600 262 1
5601 233 1
5601 268 1
5601 489 1
5602 268 1
5602 489 1
5602 778 1
5603 259 1
5603 260 1
5603 262 1
5604 352 1
5604 967 1
5604 968 1
5605 260 1
5605 261 1
5605 262 1
5606 669 1
5606 670 1
5606 671 1
5607 669 1
5607 670 1
5607 1491 1
5608 669 1
5608 670 1
5608 671 1
5609 234 1
5609 246 1
5609 768 1
5610 259 1
5610 260 1
5610 262 1
5611 352 1
5611 967 1
5611 968 1
5612 321 1
5612 450 1
5612 844 1
5613 259 1
5613 261 1
5613 262 1
5614 268 1
5614 489 1
5614 778 1
5615 739 1
5615 740 1
5615 741 1
5616 87 1
5616 256 1
5616 409 1
5617 87 1
5617 256 1
5617 409 1
5618 87 1
5618 256 1
5618 409 1
5619 87 1
5619 256 1
5619 409 1
5620 87 1
5620 256 1
5620 409 1
5621 259 1
5621 308 1
5621 314 1
5622 450 1
5622 456 1
5622 531 1
5623 259 1
5623 309 1
5623 310 1
5624 259 1
5624 308 1
5624 314 1
5625 259 1
5625 261 1
5625 262 1
5626 259 1
5626 308 1
5626 309 1
5627 259 1
5627 308 1
5627 314 1
5628 259 1
5628 308 1
5628 309 1
5629 259 1
5629 308 1
5629 314 1
5630 259 1
5630 261 1
5630 262 1
5631 259 1
5631 309 1
5631 314 1
5632 259 1
5632 308 1
5632 309 1
5633 259 1
5633 308 1
5633 314 1
5634 776 1
5634 777 1
5634 4519 1
5635 312 1
5635 777 1
5635 894 1
5636 312 1
5636 777 1
5636 894 1
5637 312 1
5637 777 1
5637 894 1
5638 312 1
5638 777 1
5638 894 1
5639 776 1
5639 777 1
5639 1569 1
5640 776 1
5640 777 1
5640 1569 1
5641 776 1
5641 777 1
5641 1569 1
5642 259 1
5642 260 1
5642 262 1
5643 259 1
5643 260 1
5643 262 1
5644 320 1
5644 321 1
5644 322 1
5645 320 1
5645 321 1
5645 322 1
5646 320 1
5646 321 1
5646 322 1
5647 259 1
5647 260 1
5647 262 1
5648 234 1
5648 236 1
5648 246 1
5649 235 1
5649 246 1
5649 768 1
5650 235 1
5650 246 1
5650 768 1
5651 235 1
5651 246 1
5651 768 1
5652 235 1
5652 246 1
5652 768 1
5653 235 1
5653 246 1
5653 768 1
5654 235 1
5654 246 1
5654 768 1
5655 235 1
5655 246 1
5655 768 1
5656 235 1
5656 246 1
5656 768 1
5657 235 1
5657 246 1
5657 768 1
5658 235 1
5658 246 1
5658 768 1
5659 235 1
5659 246 1
5659 768 1
5660 235 1
5660 246 1
5660 768 1
5661 235 1
5661 246 1
5661 768 1
5662 235 1
5662 246 1
5662 768 1
5663 235 1
5663 246 1
5663 768 1
5664 235 1
5664 246 1
5664 768 1
5665 235 1
5665 246 1
5665 768 1
5666 235 1
5666 246 1
5666 768 1
5667 235 1
5667 246 1
5667 768 1
5668 235 1
5668 246 1
5668 768 1
5669 235 1
5669 246 1
5669 768 1
5670 235 1
5670 246 1
5670 768 1
5671 235 1
5671 246 1
5671 768 1
5672 235 1
5672 246 1
5672 768 1
5673 235 1
5673 246 1
5673 768 1
5674 235 1
5674 246 1
5674 768 1
5675 235 1
5675 246 1
5675 768 1
5676 235 1
5676 246 1
5676 768 1
5677 235 1
5677 246 1
5677 768 1
5678 235 1
5678 246 1
5678 768 1
5679 179 1
5679 1805 1
5679 2614 1
5680 179 1
5680 268 1
5680 489 1
5681 776 1
5681 894 1
5681 1623 1
5682 179 1
5682 268 1
5682 489 1
5683 268 1
5683 489 1
5683 778 1
5684 450 1
5684 456 1
5684 531 1
5685 259 1
5685 261 1
5685 262 1
5686 259 1
5686 261 1
5686 262 1
5687 234 1
5687 244 1
5687 245 1
5688 234 1
5688 244 1
5688 245 1
5689 1033 1
5689 1140 1
5689 3734 1
5690 1045 1
5690 1079 1
5690 1086 1
5691 1020 1
5691 1021 1
5691 1022 1
5692 942 1
5692 1125 1
5692 1148 1
5693 1082 1
5693 1156 1
5693 1992 1
5694 1034 1
5694 1067 1
5694 1072 1
5695 1025 1
5695 1116 1
5695 1470 1
5696 1041 1
5696 1094 1
5696 1866 1
5697 1029 1
5697 1124 1
5697 2053 1
5698 1023 1
5698 1044 1
5698 1119 1
5699 1068 1
5699 1072 1
5699 5058 1
5700 1091 1
5700 1119 1
5700 2028 1
5701 327 1
5701 1056 1
5701 1060 1
5702 1085 1
5702 1101 1
5702 2105 1
5703 1059 1
5703 1101 1
5703 1103 1
5704 836 1
5704 942 1
5704 1051 1
5705 1032 1
5705 1113 1
5705 1115 1
5706 1059 1
5706 1101 1
5706 1103 1
5707 1045 1
5707 1079 1
5707 1086 1
5708 942 1
5708 1125 1
5708 1148 1
5709 1034 1
5709 1067 1
5709 1072 1
5710 1025 1
5710 1116 1
5710 1470 1
5711 1091 1
5711 1119 1
5711 2028 1
5712 1029 1
5712 1124 1
5712 2053 1
5713 327 1
5713 1056 1
5713 1060 1
5714 1085 1
5714 1101 1
5714 2105 1
5715 1023 1
5715 1044 1
5715 1119 1
5716 1068 1
5716 1072 1
5716 5058 1
5717 1033 1
5717 1042 1
5717 1091 1
5718 1033 1
5718 1140 1
5718 3734 1
5719 1082 1
5719 1156 1
5719 1992 1
5720 1041 1
5720 1094 1
5720 1866 1
5721 1021 1
5721 1022 1
5721 1533 1
5722 234 1
5722 235 1
5722 768 1
5723 234 1
5723 235 1
5723 768 1
5724 234 1
5724 235 1
5724 768 1
5725 234 1
5725 235 1
5725 768 1
5726 234 1
5726 235 1
5726 768 1
5727 234 1
5727 768 1
5727 1555 1
5728 234 1
5728 235 1
5728 768 1
5729 234 1
5729 235 1
5729 768 1
5730 235 1
5730 246 1
5730 768 1
5731 235 1
5731 246 1
5731 768 1
5732 235 1
5732 246 1
5732 768 1
5733 235 1
5733 246 1
5733 768 1
5734 234 1
5734 235 1
5734 768 1
5735 234 1
5735 246 1
5735 768 1
5736 234 1
5736 235 1
5736 768 1
5737 234 1
5737 246 1
5737 768 1
5738 235 1
5738 246 1
5738 768 1
5739 235 1
5739 246 1
5739 768 1
5740 222 1
5740 244 1
5740 1545 1
5741 234 1
5741 235 1
5741 236 1
5742 234 1
5742 235 1
5742 768 1
5743 1101 1
5743 1913 1
5743 5122 1
5744 1072 1
5744 1921 1
5744 2410 1
5745 761 1
5745 1023 1
5745 1033 1
5746 1069 1
5746 1088 1
5746 2396 1
5747 1022 1
5747 1088 1
5747 2838 1
5748 357 1
5748 1022 1
5748 1089 1
5749 1128 1
5749 2266 1
5749 2922 1
5750 355 1
5750 1086 1
5750 1089 1
5751 1022 1
5751 1088 1
5751 2838 1
5752 213 1
5752 1046 1
5752 4578 1
5753 1069 1
5753 1088 1
5753 2396 1
5754 670 1
5754 776 1
5754 1569 1
5755 670 1
5755 776 1
5755 1569 1
5756 1072 1
5756 1073 1
5756 1395 1
5757 345 1
5757 1022 1
5757 1929 1
5758 1023 1
5758 1045 1
5758 1099 1
5759 213 1
5759 1022 1
5759 1088 1
5760 357 1
5760 1088 1
5760 1095 1
5761 357 1
5761 1022 1
5761 1089 1
5762 841 1
5762 1022 1
5762 1088 1
5763 357 1
5763 841 1
5763 1088 1
5764 1088 1
5764 1095 1
5764 1929 1
5765 213 1
5765 841 1
5765 1088 1
5766 1022 1
5766 1047 1
5766 1095 1
5767 1022 1
5767 1046 1
5767 1088 1
5768 841 1
5768 1089 1
5768 1929 1
5769 1035 1
5769 1128 1
5769 2266 1
5770 1020 1
5770 1094 1
5770 1101 1
5771 355 1
5771 1086 1
5771 1089 1
5772 357 1
5772 1022 1
5772 1089 1
5773 1072 1
5773 1073 1
5773 1395 1
5774 259 1
5774 309 1
5774 310 1
5775 259 1
5775 309 1
5775 313 1
5776 259 1
5776 309 1
5776 310 1
5777 259 1
5777 261 1
5777 262 1
5778 259 1
5778 309 1
5778 313 1
5779 259 1
5779 308 1
5779 314 1
5780 234 1
5780 244 1
5780 245 1
5781 234 1
5781 244 1
5781 245 1
5782 234 1
5782 244 1
5782 245 1
5783 234 1
5783 244 1
5783 245 1
5784 234 1
5784 244 1
5784 245 1
5785 234 1
5785 244 1
5785 245 1
5786 234 1
5786 244 1
5786 245 1
5787 234 1
5787 244 1
5787 245 1
5788 234 1
5788 244 1
5788 245 1
5789 234 1
5789 244 1
5789 245 1
5790 234 1
5790 244 1
5790 245 1
5791 234 1
5791 244 1
5791 245 1
5792 234 1
5792 244 1
5792 245 1
5793 234 1
5793 244 1
5793 245 1
5794 234 1
5794 244 1
5794 245 1
5795 234 1
5795 244 1
5795 245 1
5796 234 1
5796 244 1
5796 245 1
5797 234 1
5797 244 1
5797 245 1
5798 234 1
5798 244 1
5798 245 1
5799 234 1
5799 244 1
5799 245 1
5800 234 1
5800 235 1
5800 768 1
5801 268 1
5801 489 1
5801 778 1
5802 307 1
5802 308 1
5802 663 1
5803 308 1
5803 310 1
5803 663 1
5804 268 1
5804 489 1
5804 778 1
5805 307 1
5805 308 1
5805 663 1
5806 233 1
5806 268 1
5806 489 1
5807 308 1
5807 309 1
5807 313 1
5808 307 1
5808 308 1
5808 663 1
5809 259 1
5809 260 1
5809 262 1
5810 308 1
5810 309 1
5810 313 1
5811 307 1
5811 308 1
5811 309 1
5812 259 1
5812 262 1
5812 2852 1
5813 268 1
5813 489 1
5813 778 1
5814 259 1
5814 260 1
5814 262 1
5815 233 1
5815 268 1
5815 489 1
5816 259 1
5816 260 1
5816 262 1
5817 776 1
5817 777 1
5817 1569 1
5818 233 1
5818 268 1
5818 489 1
5819 171 1
5819 268 1
5819 489 1
5820 233 1
5820 268 1
5820 489 1
5821 259 1
5821 260 1
5821 262 1
5822 456 1
5822 502 1
5822 512 1
5823 308 1
5823 310 1
5823 663 1
5824 268 1
5824 489 1
5824 778 1
5825 308 1
5825 309 1
5825 313 1
5826 312 1
5826 777 1
5826 1569 1
5827 171 1
5827 268 1
5827 489 1
5828 312 1
5828 448 1
5828 777 1
5829 234 1
5829 235 1
5829 768 1
5830 234 1
5830 235 1
5830 768 1
5831 234 1
5831 235 1
5831 768 1
5832 234 1
5832 235 1
5832 768 1
5833 234 1
5833 235 1
5833 768 1
5834 234 1
5834 235 1
5834 768 1
5835 234 1
5835 235 1
5835 768 1
5836 259 1
5836 261 1
5836 262 1
5837 234 1
5837 235 1
5837 236 1
5838 234 1
5838 235 1
5838 236 1
5839 234 1
5839 235 1
5839 236 1
5840 234 1
5840 235 1
5840 236 1
5841 234 1
5841 236 1
5841 245 1
5842 234 1
5842 236 1
5842 245 1
5843 234 1
5843 236 1
5843 245 1
5844 234 1
5844 236 1
5844 245 1
5845 234 1
5845 236 1
5845 245 1
5846 234 1
5846 236 1
5846 245 1
5847 234 1
5847 236 1
5847 245 1
5848 234 1
5848 236 1
5848 245 1
5849 234 1
5849 236 1
5849 245 1
5850 234 1
5850 235 1
5850 236 1
5851 234 1
5851 235 1
5851 236 1
5852 234 1
5852 235 1
5852 236 1
5853 234 1
5853 235 1
5853 236 1
5854 234 1
5854 236 1
5854 245 1
5855 234 1
5855 236 1
5855 245 1
5856 234 1
5856 236 1
5856 245 1
5857 234 1
5857 236 1
5857 245 1
5858 234 1
5858 236 1
5858 245 1
5859 234 1
5859 235 1
5859 236 1
5860 234 1
5860 235 1
5860 236 1
5861 234 1
5861 235 1
5861 236 1
5862 234 1
5862 235 1
5862 236 1
5863 234 1
5863 235 1
5863 236 1
5864 234 1
5864 235 1
5864 236 1
5865 234 1
5865 235 1
5865 236 1
5866 234 1
5866 235 1
5866 236 1
5867 234 1
5867 235 1
5867 236 1
5868 234 1
5868 235 1
5868 236 1
5869 234 1
5869 235 1
5869 236 1
5870 234 1
5870 235 1
5870 236 1
5871 234 1
5871 236 1
5871 245 1
5872 234 1
5872 235 1
5872 236 1
5873 234 1
5873 236 1
5873 245 1
5874 234 1
5874 235 1
5874 236 1
5875 234 1
5875 235 1
5875 236 1
5876 234 1
5876 235 1
5876 236 1
5877 234 1
5877 235 1
5877 236 1
5878 234 1
5878 235 1
5878 768 1
5879 234 1
5879 235 1
5879 244 1
5880 234 1
5880 235 1
5880 236 1
5881 234 1
5881 236 1
5881 245 1
5882 234 1
5882 236 1
5882 245 1
5883 234 1
5883 236 1
5883 245 1
5884 234 1
5884 235 1
5884 236 1
5885 234 1
5885 235 1
5885 236 1
5886 234 1
5886 235 1
5886 236 1
5887 234 1
5887 236 1
5887 245 1
5888 234 1
5888 236 1
5888 245 1
5889 234 1
5889 236 1
5889 245 1
5890 234 1
5890 236 1
5890 245 1
5891 671 1
5891 1031 1
5891 1092 1
5892 671 1
5892 1031 1
5892 1092 1
5893 234 1
5893 235 1
5893 245 1
5894 234 1
5894 244 1
5894 245 1
5895 259 1
5895 308 1
5895 309 1
5896 259 1
5896 308 1
5896 314 1
5897 259 1
5897 308 1
5897 314 1
5898 308 1
5898 309 1
5898 313 1
5899 259 1
5899 308 1
5899 309 1
5900 308 1
5900 309 1
5900 313 1
5901 259 1
5901 308 1
5901 309 1
5902 259 1
5902 308 1
5902 314 1
5903 259 1
5903 308 1
5903 314 1
5904 234 1
5904 246 1
5904 768 1
5905 234 1
5905 244 1
5905 246 1
5906 356 1
5906 450 1
5906 1493 1
5907 268 1
5907 489 1
5907 778 1
5908 308 1
5908 314 1
5908 663 1
5909 263 1
5909 313 1
5909 663 1
5910 234 1
5910 235 1
5910 768 1
5911 234 1
5911 235 1
5911 768 1
5912 234 1
5912 235 1
5912 768 1
5913 234 1
5913 235 1
5913 768 1
5914 234 1
5914 235 1
5914 768 1
5915 234 1
5915 235 1
5915 768 1
5916 234 1
5916 235 1
5916 768 1
5917 234 1
5917 235 1
5917 768 1
5918 234 1
5918 235 1
5918 768 1
5919 234 1
5919 235 1
5919 768 1
5920 234 1
5920 235 1
5920 768 1
5921 234 1
5921 235 1
5921 768 1
5922 234 1
5922 235 1
5922 768 1
5923 234 1
5923 235 1
5923 768 1
5924 234 1
5924 244 1
5924 246 1
5925 234 1
5925 244 1
5925 246 1
5926 234 1
5926 246 1
5926 768 1
5927 234 1
5927 246 1
5927 768 1
5928 234 1
5928 246 1
5928 768 1
5929 234 1
5929 246 1
5929 768 1
5930 234 1
5930 244 1
5930 245 1
5931 234 1
5931 235 1
5931 245 1
5932 234 1
5932 235 1
5932 250 1
5933 259 1
5933 261 1
5933 1693 1
5934 259 1
5934 309 1
5934 313 1
5935 268 1
5935 489 1
5935 778 1
5936 234 1
5936 235 1
5936 245 1
5937 234 1
5937 235 1
5937 245 1
5938 234 1
5938 235 1
5938 245 1
5939 234 1
5939 244 1
5939 245 1
5940 234 1
5940 244 1
5940 245 1
5941 234 1
5941 235 1
5941 245 1
5942 234 1
5942 235 1
5942 245 1
5943 234 1
5943 244 1
5943 245 1
5944 234 1
5944 244 1
5944 245 1
5945 234 1
5945 235 1
5945 245 1
5946 234 1
5946 235 1
5946 245 1
5947 234 1
5947 235 1
5947 245 1
5948 234 1
5948 235 1
5948 245 1
5949 234 1
5949 244 1
5949 245 1
5950 234 1
5950 244 1
5950 245 1
5951 234 1
5951 244 1
5951 245 1
5952 234 1
5952 244 1
5952 245 1
5953 234 1
5953 244 1
5953 245 1
5954 1989 1
5954 1990 1
5954 2657 1
5955 308 1
5955 309 1
5955 313 1
5956 243 1
5956 319 1
5956 776 1
5957 243 1
5957 319 1
5957 776 1
5958 243 1
5958 319 1
5958 776 1
5959 1062 1
5959 1124 1
5959 1136 1
5960 1083 1
5960 2523 1
5960 2596 1
5961 259 1
5961 261 1
5961 262 1
5962 259 1
5962 308 1
5962 309 1
5963 259 1
5963 308 1
5963 309 1
5964 259 1
5964 308 1
5964 314 1
5965 776 1
5965 777 1
5965 1569 1
5966 352 1
5966 967 1
5966 968 1
5967 464 1
5967 2007 1
5967 2008 1
5968 259 1
5968 260 1
5968 262 1
5969 259 1
5969 261 1
5969 262 1
5970 234 1
5970 244 1
5970 245 1
5971 234 1
5971 235 1
5971 245 1
5972 234 1
5972 235 1
5972 245 1
5973 234 1
5973 235 1
5973 245 1
5974 234 1
5974 235 1
5974 245 1
5975 234 1
5975 235 1
5975 245 1
5976 234 1
5976 235 1
5976 245 1
5977 234 1
5977 235 1
5977 245 1
5978 234 1
5978 235 1
5978 245 1
5979 234 1
5979 235 1
5979 245 1
5980 776 1
5980 777 1
5980 1569 1
5981 776 1
5981 777 1
5981 1569 1
5982 259 1
5982 308 1
5982 314 1
5983 259 1
5983 308 1
5983 314 1
5984 456 1
5984 502 1
5984 512 1
5985 259 1
5985 261 1
5985 262 1
5986 259 1
5986 308 1
5986 314 1
5987 259 1
5987 308 1
5987 309 1
5988 259 1
5988 308 1
5988 309 1
5989 308 1
5989 309 1
5989 313 1
5990 456 1
5990 502 1
5990 512 1
5991 259 1
5991 308 1
5991 309 1
5992 456 1
5992 502 1
5992 512 1
5993 259 1
5993 308 1
5993 309 1
5994 670 1
5994 776 1
5994 1553 1
5995 243 1
5995 776 1
5995 2855 1
5996 319 1
5996 502 1
5996 2855 1
5997 648 1
5997 1012 1
5997 1015 1
5998 670 1
5998 776 1
5998 1553 1
5999 776 1
5999 1553 1
5999 4133 1
6000 222 1
6000 804 1
6000 1179 1
6001 222 1
6001 448 1
6001 1179 1
6002 776 1
6002 1078 1
6002 1569 1
6003 776 1
6003 777 1
6003 1569 1
6004 308 1
6004 504 1
6004 804 1
6005 776 1
6005 1078 1
6005 1569 1
6006 776 1
6006 1078 1
6006 1569 1
6007 776 1
6007 777 1
6007 804 1
6008 776 1
6008 777 1
6008 1569 1
6009 776 1
6009 804 1
6009 1569 1
6010 776 1
6010 777 1
6010 1569 1
6011 268 1
6011 489 1
6011 778 1
6012 268 1
6012 489 1
6012 778 1
6013 221 1
6013 222 1
6013 309 1
6014 262 1
6014 2251 1
6014 2273 1
6015 222 1
6015 804 1
6015 1179 1
6016 234 1
6016 244 1
6016 245 1
6017 234 1
6017 246 1
6017 768 1
6018 262 1
6018 2251 1
6018 2273 1
6019 222 1
6019 804 1
6019 1179 1
6020 259 1
6020 308 1
6020 309 1
6021 259 1
6021 308 1
6021 314 1
6022 259 1
6022 261 1
6022 262 1
6023 259 1
6023 262 1
6023 1494 1
6024 263 1
6024 313 1
6024 663 1
6025 268 1
6025 489 1
6025 778 1
6026 221 1
6026 222 1
6026 309 1
6027 319 1
6027 1647 1
6027 2855 1
6028 319 1
6028 1647 1
6028 2855 1
6029 319 1
6029 1647 1
6029 2855 1
6030 319 1
6030 323 1
6030 2855 1
6031 243 1
6031 319 1
6031 5183 1
6032 777 1
6032 1553 1
6032 3420 1
6033 234 1
6033 244 1
6033 768 1
6034 1155 1
6034 2143 1
6034 2526 1
6035 262 1
6035 1395 1
6035 3515 1
6036 259 1
6036 308 1
6036 309 1
6037 234 1
6037 235 1
6037 244 1
6038 268 1
6038 489 1
6038 778 1
6039 234 1
6039 235 1
6039 245 1
6040 234 1
6040 235 1
6040 245 1
6041 359 1
6041 1985 1
6041 3286 1
6042 776 1
6042 777 1
6042 894 1
6043 777 1
6043 5190 1
6043 5191 1
6044 776 1
6044 777 1
6044 1569 1
6045 171 1
6045 243 1
6045 942 1
6046 234 1
6046 246 1
6046 768 1
6047 234 1
6047 246 1
6047 768 1
6048 234 1
6048 246 1
6048 768 1
6049 234 1
6049 246 1
6049 768 1
6050 234 1
6050 246 1
6050 768 1
6051 234 1
6051 246 1
6051 768 1
6052 5192 1
6052 5193 1
6052 5194 1
6053 234 1
6053 235 1
6053 245 1
6054 234 1
6054 235 1
6054 245 1
6055 234 1
6055 244 1
6055 245 1
6056 234 1
6056 244 1
6056 245 1
6057 670 1
6057 776 1
6057 1553 1
6058 670 1
6058 776 1
6058 1553 1
6059 268 1
6059 489 1
6059 778 1
6060 670 1
6060 776 1
6060 1553 1
6061 235 1
6061 250 1
6061 768 1
6062 234 1
6062 244 1
6062 245 1
6063 234 1
6063 244 1
6063 245 1
6064 234 1
6064 235 1
6064 246 1
6065 234 1
6065 235 1
6065 246 1
6066 234 1
6066 235 1
6066 246 1
6067 234 1
6067 235 1
6067 246 1
6068 670 1
6068 776 1
6068 777 1
6069 1893 1
6069 4071 1
6069 5196 1
6070 942 1
6070 1867 1
6070 5197 1
6071 179 1
6071 268 1
6071 489 1
6072 234 1
6072 235 1
6072 768 1
6073 259 1
6073 308 1
6073 310 1
6074 234 1
6074 235 1
6074 244 1
6075 246 1
6075 250 1
6075 768 1
6076 268 1
6076 489 1
6076 778 1
6077 450 1
6077 456 1
6077 502 1
6078 268 1
6078 489 1
6078 778 1
6079 465 1
6079 1083 1
6079 1622 1
6080 456 1
6080 502 1
6080 512 1
6081 456 1
6081 502 1
6081 512 1
6082 669 1
6082 776 1
6082 1491 1
6083 669 1
6083 776 1
6083 1491 1
6084 456 1
6084 502 1
6084 512 1
6085 669 1
6085 1491 1
6085 1654 1
6086 261 1
6086 356 1
6086 828 1
6087 456 1
6087 502 1
6087 512 1
6088 222 1
6088 234 1
6088 236 1
6089 222 1
6089 234 1
6089 236 1
6090 222 1
6090 234 1
6090 236 1
6091 268 1
6091 489 1
6091 778 1
6092 259 1
6092 309 1
6092 311 1
6093 259 1
6093 309 1
6093 311 1
6094 259 1
6094 308 1
6094 309 1
6095 261 1
6095 310 1
6095 1490 1
6096 261 1
6096 310 1
6096 1490 1
6097 244 1
6097 1562 1
6097 2840 1
6098 312 1
6098 894 1
6098 1553 1
6099 319 1
6099 502 1
6099 1647 1
6100 234 1
6100 235 1
6100 244 1
6101 234 1
6101 244 1
6101 245 1
6102 234 1
6102 235 1
6102 245 1
6103 234 1
6103 235 1
6103 245 1
6104 234 1
6104 244 1
6104 245 1
6105 234 1
6105 235 1
6105 245 1
6106 234 1
6106 235 1
6106 244 1
6107 246 1
6107 768 1
6107 1555 1
6108 234 1
6108 235 1
6108 768 1
6109 246 1
6109 768 1
6109 1179 1
6110 234 1
6110 244 1
6110 245 1
6111 234 1
6111 244 1
6111 245 1
6112 234 1
6112 244 1
6112 245 1
6113 234 1
6113 244 1
6113 245 1
6114 776 1
6114 1569 1
6114 2678 1
6115 232 1
6115 484 1
6115 485 1
6116 232 1
6116 484 1
6116 485 1
6117 268 1
6117 358 1
6117 489 1
6118 243 1
6118 776 1
6118 2855 1
6119 234 1
6119 244 1
6119 245 1
6120 234 1
6120 244 1
6120 245 1
6121 234 1
6121 244 1
6121 245 1
6122 234 1
6122 244 1
6122 245 1
6123 234 1
6123 244 1
6123 245 1
6124 234 1
6124 244 1
6124 245 1
6125 234 1
6125 244 1
6125 245 1
6126 234 1
6126 244 1
6126 245 1
6127 234 1
6127 244 1
6127 245 1
6128 234 1
6128 244 1
6128 245 1
6129 234 1
6129 244 1
6129 245 1
6130 234 1
6130 244 1
6130 245 1
6131 234 1
6131 244 1
6131 245 1
6132 259 1
6132 309 1
6132 311 1
6133 308 1
6133 309 1
6133 313 1
6134 259 1
6134 308 1
6134 314 1
6135 259 1
6135 308 1
6135 310 1
6136 259 1
6136 1494 1
6136 1495 1
6137 259 1
6137 261 1
6137 262 1
6138 259 1
6138 308 1
6138 309 1
6139 259 1
6139 308 1
6139 309 1
6140 259 1
6140 308 1
6140 314 1
6141 259 1
6141 308 1
6141 314 1
6142 259 1
6142 308 1
6142 314 1
6143 307 1
6143 308 1
6143 309 1
6144 308 1
6144 309 1
6144 313 1
6145 259 1
6145 308 1
6145 309 1
6146 259 1
6146 309 1
6146 313 1
6147 670 1
6147 777 1
6147 2296 1
6148 312 1
6148 670 1
6148 777 1
6149 259 1
6149 309 1
6149 310 1
6150 670 1
6150 776 1
6150 777 1
6151 259 1
6151 261 1
6151 262 1
6152 259 1
6152 261 1
6152 262 1
6153 308 1
6153 309 1
6153 313 1
6154 670 1
6154 776 1
6154 1553 1
6155 259 1
6155 309 1
6155 313 1
6156 259 1
6156 309 1
6156 313 1
6157 259 1
6157 308 1
6157 309 1
6158 259 1
6158 308 1
6158 309 1
6159 259 1
6159 308 1
6159 309 1
6160 259 1
6160 261 1
6160 262 1
6161 259 1
6161 308 1
6161 314 1
6162 259 1
6162 262 1
6162 1494 1
6163 259 1
6163 309 1
6163 313 1
6164 942 1
6164 1096 1
6164 1571 1
6165 259 1
6165 308 1
6165 309 1
6166 259 1
6166 308 1
6166 314 1
6167 502 1
6167 776 1
6167 1179 1
6168 234 1
6168 235 1
6168 768 1
6169 235 1
6169 244 1
6169 245 1
6170 234 1
6170 246 1
6170 768 1
6171 1032 1
6171 1113 1
6171 1521 1
6172 234 1
6172 244 1
6172 245 1
6173 234 1
6173 235 1
6173 245 1
6174 234 1
6174 235 1
6174 245 1
6175 776 1
6175 894 1
6175 1553 1
6176 776 1
6176 894 1
6176 1553 1
6177 776 1
6177 894 1
6177 1553 1
6178 776 1
6178 894 1
6178 1553 1
6179 307 1
6179 308 1
6179 309 1
6180 307 1
6180 308 1
6180 309 1
6181 308 1
6181 314 1
6181 663 1
6182 263 1
6182 313 1
6182 663 1
6183 246 1
6183 250 1
6183 768 1
6184 246 1
6184 250 1
6184 768 1
6185 246 1
6185 250 1
6185 768 1
6186 246 1
6186 250 1
6186 768 1
6187 246 1
6187 250 1
6187 768 1
6188 246 1
6188 250 1
6188 768 1
6189 319 1
6189 502 1
6189 2855 1
6190 319 1
6190 502 1
6190 2855 1
6191 268 1
6191 489 1
6191 778 1
6192 670 1
6192 776 1
6192 1553 1
6193 234 1
6193 235 1
6193 768 1
6194 234 1
6194 235 1
6194 244 1
6195 234 1
6195 235 1
6195 244 1
6196 776 1
6196 777 1
6196 1569 1
6197 234 1
6197 235 1
6197 244 1
6198 268 1
6198 489 1
6198 778 1
6199 259 1
6199 261 1
6199 262 1
6200 259 1
6200 309 1
6200 310 1
6201 259 1
6201 308 1
6201 309 1
6202 259 1
6202 308 1
6202 314 1
6203 259 1
6203 309 1
6203 313 1
6204 259 1
6204 262 1
6204 1494 1
6205 261 1
6205 356 1
6205 822 1
6206 259 1
6206 262 1
6206 1494 1
6207 261 1
6207 356 1
6207 822 1
6208 261 1
6208 310 1
6208 1490 1
6209 234 1
6209 235 1
6209 768 1
6210 235 1
6210 250 1
6210 768 1
6211 235 1
6211 250 1
6211 768 1
6212 235 1
6212 250 1
6212 768 1
6213 234 1
6213 244 1
6213 245 1
6214 234 1
6214 244 1
6214 245 1
6215 234 1
6215 235 1
6215 245 1
6216 234 1
6216 235 1
6216 245 1
6217 234 1
6217 235 1
6217 246 1
6218 234 1
6218 246 1
6218 768 1
6219 776 1
6219 777 1
6219 804 1
6220 268 1
6220 489 1
6220 778 1
6221 234 1
6221 244 1
6221 1555 1
6222 235 1
6222 250 1
6222 768 1
6223 268 1
6223 489 1
6223 778 1
6224 234 1
6224 235 1
6224 236 1
6225 234 1
6225 235 1
6225 236 1
6226 234 1
6226 235 1
6226 236 1
6227 234 1
6227 235 1
6227 236 1
6228 234 1
6228 235 1
6228 236 1
6229 234 1
6229 235 1
6229 236 1
6230 234 1
6230 235 1
6230 236 1
6231 234 1
6231 235 1
6231 236 1
6232 234 1
6232 235 1
6232 236 1
6233 234 1
6233 235 1
6233 236 1
6234 234 1
6234 235 1
6234 236 1
6235 234 1
6235 235 1
6235 236 1
6236 234 1
6236 235 1
6236 236 1
6237 234 1
6237 235 1
6237 236 1
6238 234 1
6238 235 1
6238 236 1
6239 234 1
6239 235 1
6239 236 1
6240 234 1
6240 235 1
6240 236 1
6241 234 1
6241 235 1
6241 236 1
6242 234 1
6242 235 1
6242 236 1
6243 234 1
6243 235 1
6243 236 1
6244 234 1
6244 235 1
6244 236 1
6245 234 1
6245 235 1
6245 236 1
6246 234 1
6246 235 1
6246 236 1
6247 234 1
6247 235 1
6247 236 1
6248 234 1
6248 235 1
6248 236 1
6249 234 1
6249 235 1
6249 236 1
6250 234 1
6250 235 1
6250 236 1
6251 234 1
6251 235 1
6251 236 1
6252 234 1
6252 235 1
6252 236 1
6253 234 1
6253 235 1
6253 236 1
6254 234 1
6254 235 1
6254 236 1
6255 234 1
6255 235 1
6255 236 1
6256 234 1
6256 235 1
6256 236 1
6257 234 1
6257 235 1
6257 236 1
6258 234 1
6258 235 1
6258 236 1
6259 234 1
6259 235 1
6259 236 1
6260 234 1
6260 235 1
6260 236 1
6261 234 1
6261 235 1
6261 236 1
6262 234 1
6262 235 1
6262 236 1
6263 234 1
6263 235 1
6263 236 1
6264 234 1
6264 235 1
6264 236 1
6265 234 1
6265 235 1
6265 236 1
6266 234 1
6266 235 1
6266 236 1
6267 234 1
6267 235 1
6267 236 1
6268 234 1
6268 235 1
6268 236 1
6269 234 1
6269 235 1
6269 236 1
6270 234 1
6270 235 1
6270 236 1
6271 234 1
6271 235 1
6271 236 1
6272 234 1
6272 235 1
6272 236 1
6273 234 1
6273 235 1
6273 236 1
6274 234 1
6274 235 1
6274 236 1
6275 234 1
6275 235 1
6275 236 1
6276 234 1
6276 235 1
6276 236 1
6277 1086 1
6277 1116 1
6277 1863 1
6278 1789 1
6278 3740 1
6278 4098 1
6279 3111 1
6279 3780 1
6279 4487 1
6280 2642 1
6280 5225 1
6280 5226 1
6281 230 1
6281 1538 1
6281 5236 1
6282 230 1
6282 1538 1
6282 5236 1
6283 259 1
6283 261 1
6283 262 1
6284 464 1
6284 2007 1
6284 2008 1
6285 2007 1
6285 2008 1
6285 4309 1
6286 2007 1
6286 4309 1
6286 4727 1
6287 234 1
6287 246 1
6287 768 1
6288 234 1
6288 246 1
6288 768 1
6289 234 1
6289 246 1
6289 768 1
6290 234 1
6290 246 1
6290 768 1
6291 670 1
6291 776 1
6291 777 1
6292 670 1
6292 776 1
6292 777 1
6293 234 1
6293 235 1
6293 236 1
6294 234 1
6294 235 1
6294 236 1
6295 234 1
6295 235 1
6295 244 1
6296 234 1
6296 236 1
6296 250 1
6297 234 1
6297 235 1
6297 245 1
6298 234 1
6298 235 1
6298 245 1
6299 234 1
6299 235 1
6299 245 1
6300 235 1
6300 246 1
6300 768 1
6301 221 1
6301 232 1
6301 1179 1
6302 259 1
6302 308 1
6302 309 1
6303 268 1
6303 489 1
6303 778 1
6304 234 1
6304 235 1
6304 244 1
6305 234 1
6305 244 1
6305 245 1
6306 234 1
6306 244 1
6306 245 1
6307 234 1
6307 244 1
6307 245 1
6308 234 1
6308 244 1
6308 245 1
6309 234 1
6309 244 1
6309 245 1
6310 234 1
6310 244 1
6310 245 1
6311 234 1
6311 244 1
6311 245 1
6312 234 1
6312 244 1
6312 245 1
6313 234 1
6313 244 1
6313 245 1
6314 234 1
6314 235 1
6314 246 1
6315 234 1
6315 235 1
6315 244 1
6316 232 1
6316 319 1
6316 1179 1
6317 670 1
6317 776 1
6317 777 1
6318 234 1
6318 235 1
6318 768 1
6319 234 1
6319 235 1
6319 244 1
6320 243 1
6320 319 1
6320 2855 1
6321 2108 1
6321 3539 1
6321 4530 1
6322 243 1
6322 2108 1
6322 3539 1
6323 234 1
6323 235 1
6323 768 1
6324 234 1
6324 235 1
6324 768 1
6325 234 1
6325 235 1
6325 768 1
6326 1044 1
6326 2102 1
6326 5255 1
6327 268 1
6327 489 1
6327 778 1
6328 234 1
6328 235 1
6328 244 1
6329 776 1
6329 894 1
6329 1569 1
6330 232 1
6330 319 1
6330 1179 1
6331 221 1
6331 222 1
6331 309 1
6332 308 1
6332 309 1
6332 313 1
6333 259 1
6333 308 1
6333 309 1
6334 670 1
6334 776 1
6334 1569 1
6335 319 1
6335 1179 1
6335 1647 1
6336 319 1
6336 1179 1
6336 1647 1
6337 319 1
6337 1179 1
6337 1647 1
6338 319 1
6338 1179 1
6338 1647 1
6339 1179 1
6339 1647 1
6339 3417 1
6340 502 1
6340 776 1
6340 1179 1
6341 234 1
6341 235 1
6341 250 1
6342 234 1
6342 235 1
6342 245 1
6343 1571 1
6343 1893 1
6343 3326 1
6344 234 1
6344 235 1
6344 245 1
6345 234 1
6345 245 1
6345 246 1
6346 776 1
6346 777 1
6346 5191 1
6347 234 1
6347 244 1
6347 245 1
6348 234 1
6348 244 1
6348 245 1
6349 234 1
6349 244 1
6349 245 1
6350 308 1
6350 309 1
6350 313 1
6351 259 1
6351 308 1
6351 309 1
6352 259 1
6352 308 1
6352 314 1
6353 307 1
6353 308 1
6353 309 1
6354 1032 1
6354 1048 1
6354 4236 1
6355 776 1
6355 777 1
6355 1569 1
6356 245 1
6356 319 1
6356 1647 1
6357 245 1
6357 319 1
6357 1647 1
6358 245 1
6358 319 1
6358 1647 1
6359 245 1
6359 319 1
6359 1647 1
6360 245 1
6360 319 1
6360 1647 1
6361 245 1
6361 319 1
6361 1647 1
6362 837 1
6362 948 1
6362 1125 1
6363 1053 1
6363 1059 1
6363 1062 1
6364 1053 1
6364 1124 1
6364 1898 1
6365 1179 1
6365 1647 1
6365 2855 1
6366 670 1
6366 776 1
6366 777 1
6367 268 1
6367 489 1
6367 778 1
6368 259 1
6368 308 1
6368 309 1
6369 259 1
6369 308 1
6369 314 1
6370 670 1
6370 776 1
6370 777 1
6371 3286 1
6371 4005 1
6371 4530 1
6372 232 1
6372 4077 1
6372 5269 1
6373 243 1
6373 776 1
6373 2855 1
6374 259 1
6374 1999 1
6374 2677 1
6375 234 1
6375 235 1
6375 245 1
6376 234 1
6376 235 1
6376 245 1
6377 246 1
6377 250 1
6377 768 1
6378 246 1
6378 250 1
6378 768 1
6379 235 1
6379 250 1
6379 768 1
6380 234 1
6380 244 1
6380 245 1
6381 234 1
6381 244 1
6381 245 1
6382 234 1
6382 244 1
6382 245 1
6383 234 1
6383 244 1
6383 245 1
6384 234 1
6384 244 1
6384 245 1
6385 234 1
6385 244 1
6385 245 1
6386 234 1
6386 244 1
6386 245 1
6387 234 1
6387 244 1
6387 245 1
6388 234 1
6388 244 1
6388 245 1
6389 234 1
6389 244 1
6389 245 1
6390 234 1
6390 244 1
6390 245 1
6391 234 1
6391 244 1
6391 245 1
6392 234 1
6392 244 1
6392 245 1
6393 234 1
6393 244 1
6393 245 1
6394 234 1
6394 244 1
6394 245 1
6395 234 1
6395 244 1
6395 245 1
6396 234 1
6396 244 1
6396 245 1
6397 234 1
6397 244 1
6397 245 1
6398 234 1
6398 244 1
6398 245 1
6399 234 1
6399 244 1
6399 245 1
6400 234 1
6400 244 1
6400 245 1
6401 234 1
6401 244 1
6401 245 1
6402 234 1
6402 244 1
6402 245 1
6403 234 1
6403 244 1
6403 245 1
6404 234 1
6404 244 1
6404 245 1
6405 234 1
6405 244 1
6405 245 1
6406 234 1
6406 244 1
6406 245 1
6407 234 1
6407 244 1
6407 245 1
6408 234 1
6408 244 1
6408 245 1
6409 234 1
6409 244 1
6409 245 1
6410 234 1
6410 244 1
6410 245 1
6411 234 1
6411 244 1
6411 245 1
6412 234 1
6412 244 1
6412 245 1
6413 234 1
6413 244 1
6413 245 1
6414 234 1
6414 244 1
6414 245 1
6415 234 1
6415 244 1
6415 245 1
6416 234 1
6416 244 1
6416 245 1
6417 234 1
6417 244 1
6417 245 1
6418 234 1
6418 244 1
6418 245 1
6419 234 1
6419 244 1
6419 245 1
6420 234 1
6420 244 1
6420 245 1
6421 234 1
6421 244 1
6421 245 1
6422 234 1
6422 235 1
6422 768 1
6423 234 1
6423 235 1
6423 245 1
6424 234 1
6424 235 1
6424 245 1
6425 234 1
6425 235 1
6425 245 1
6426 234 1
6426 244 1
6426 245 1
6427 234 1
6427 244 1
6427 245 1
6428 234 1
6428 244 1
6428 245 1
6429 234 1
6429 246 1
6429 768 1
6430 1179 1
6430 1553 1
6430 1958 1
6431 319 1
6431 1647 1
6431 2855 1
6432 776 1
6432 2275 1
6432 2314 1
6433 268 1
6433 489 1
6433 778 1
6434 232 1
6434 1179 1
6434 5276 1
6435 243 1
6435 770 1
6435 2855 1
6436 234 1
6436 235 1
6436 245 1
6437 234 1
6437 235 1
6437 245 1
6438 234 1
6438 235 1
6438 245 1
6439 234 1
6439 235 1
6439 245 1
6440 670 1
6440 776 1
6440 777 1
6441 235 1
6441 250 1
6441 768 1
6442 1647 1
6442 5281 1
6442 5282 1
6443 245 1
6443 319 1
6443 1647 1
6444 245 1
6444 319 1
6444 1647 1
6445 234 1
6445 235 1
6445 245 1
6446 234 1
6446 235 1
6446 245 1
6447 234 1
6447 235 1
6447 245 1
6448 234 1
6448 235 1
6448 245 1
6449 234 1
6449 235 1
6449 245 1
6450 234 1
6450 235 1
6450 246 1
6451 234 1
6451 235 1
6451 768 1
6452 3500 1
6452 4902 1
6452 5285 1
6453 234 1
6453 235 1
6453 245 1
6454 234 1
6454 244 1
6454 245 1
6455 234 1
6455 244 1
6455 245 1
6456 234 1
6456 244 1
6456 245 1
6457 234 1
6457 244 1
6457 245 1
6458 234 1
6458 244 1
6458 245 1
6459 234 1
6459 244 1
6459 245 1
6460 234 1
6460 235 1
6460 250 1
6461 234 1
6461 244 1
6461 245 1
6462 234 1
6462 244 1
6462 245 1
6463 450 1
6463 1125 1
6463 3501 1
6464 456 1
6464 502 1
6464 512 1
6465 268 1
6465 489 1
6465 778 1
6466 268 1
6466 358 1
6466 489 1
6467 670 1
6467 776 1
6467 777 1
6468 308 1
6468 309 1
6468 313 1
6469 307 1
6469 308 1
6469 309 1
6470 670 1
6470 776 1
6470 777 1
6471 670 1
6471 776 1
6471 777 1
6472 234 1
6472 246 1
6472 768 1
6473 234 1
6473 235 1
6473 236 1
6474 838 1
6474 948 1
6474 1125 1
6475 948 1
6475 1125 1
6475 2544 1
6476 244 1
6476 776 1
6476 1014 1
6477 234 1
6477 244 1
6477 245 1
6478 234 1
6478 244 1
6478 245 1
6479 234 1
6479 244 1
6479 245 1
6480 244 1
6480 245 1
6480 246 1
6481 234 1
6481 246 1
6481 768 1
6482 234 1
6482 246 1
6482 768 1
6483 234 1
6483 246 1
6483 768 1
6484 244 1
6484 245 1
6484 246 1
6485 244 1
6485 245 1
6485 246 1
6486 234 1
6486 235 1
6486 768 1
6487 234 1
6487 235 1
6487 768 1
6488 259 1
6488 1494 1
6488 1495 1
6489 259 1
6489 308 1
6489 310 1
6490 234 1
6490 235 1
6490 768 1
6491 234 1
6491 244 1
6491 245 1
6492 776 1
6492 777 1
6492 1569 1
6493 776 1
6493 777 1
6493 1569 1
6494 670 1
6494 776 1
6494 777 1
6495 308 1
6495 309 1
6495 313 1
6496 259 1
6496 309 1
6496 310 1
6497 448 1
6497 776 1
6497 777 1
6498 308 1
6498 309 1
6498 310 1
6499 234 1
6499 235 1
6499 236 1
6500 308 1
6500 309 1
6500 313 1
6501 234 1
6501 235 1
6501 245 1
6502 234 1
6502 235 1
6502 245 1
6503 234 1
6503 246 1
6503 768 1
6504 234 1
6504 246 1
6504 768 1
6505 234 1
6505 246 1
6505 768 1
6506 234 1
6506 246 1
6506 768 1
6507 234 1
6507 244 1
6507 245 1
6508 234 1
6508 235 1
6508 768 1
6509 234 1
6509 235 1
6509 768 1
6510 234 1
6510 235 1
6510 768 1
6511 234 1
6511 235 1
6511 768 1
6512 259 1
6512 308 1
6512 309 1
6513 259 1
6513 308 1
6513 314 1
6514 259 1
6514 262 1
6514 1494 1
6515 234 1
6515 235 1
6515 245 1
6516 234 1
6516 244 1
6516 245 1
6517 234 1
6517 244 1
6517 245 1
6518 234 1
6518 235 1
6518 245 1
6519 234 1
6519 244 1
6519 245 1
6520 234 1
6520 768 1
6520 1555 1
6521 234 1
6521 244 1
6521 245 1
6522 234 1
6522 235 1
6522 245 1
6523 234 1
6523 235 1
6523 245 1
6524 234 1
6524 244 1
6524 245 1
6525 234 1
6525 244 1
6525 245 1
6526 234 1
6526 244 1
6526 245 1
6527 234 1
6527 244 1
6527 245 1
6528 234 1
6528 244 1
6528 245 1
6529 234 1
6529 244 1
6529 245 1
6530 234 1
6530 244 1
6530 245 1
6531 232 1
6531 319 1
6531 1647 1
6532 232 1
6532 319 1
6532 1647 1
6533 232 1
6533 319 1
6533 1647 1
6534 232 1
6534 319 1
6534 1647 1
6535 232 1
6535 319 1
6535 1647 1
6536 234 1
6536 235 1
6536 245 1
6537 234 1
6537 244 1
6537 245 1
6538 234 1
6538 235 1
6538 244 1
6539 234 1
6539 235 1
6539 244 1
6540 234 1
6540 235 1
6540 244 1
6541 670 1
6541 776 1
6541 1553 1
6542 235 1
6542 246 1
6542 768 1
6543 234 1
6543 244 1
6543 245 1
6544 234 1
6544 235 1
6544 236 1
6545 234 1
6545 235 1
6545 245 1
6546 234 1
6546 236 1
6546 245 1
6547 234 1
6547 235 1
6547 236 1
6548 234 1
6548 236 1
6548 245 1
6549 234 1
6549 235 1
6549 236 1
6550 234 1
6550 235 1
6550 236 1
6551 234 1
6551 235 1
6551 236 1
6552 234 1
6552 235 1
6552 236 1
6553 234 1
6553 235 1
6553 236 1
6554 234 1
6554 235 1
6554 236 1
6555 234 1
6555 235 1
6555 236 1
6556 234 1
6556 235 1
6556 236 1
6557 234 1
6557 235 1
6557 245 1
6558 234 1
6558 235 1
6558 245 1
6559 234 1
6559 235 1
6559 236 1
6560 234 1
6560 235 1
6560 236 1
6561 234 1
6561 235 1
6561 236 1
6562 234 1
6562 235 1
6562 236 1
6563 234 1
6563 235 1
6563 236 1
6564 234 1
6564 235 1
6564 236 1
6565 234 1
6565 235 1
6565 236 1
6566 234 1
6566 235 1
6566 236 1
6567 234 1
6567 235 1
6567 236 1
6568 234 1
6568 235 1
6568 236 1
6569 234 1
6569 235 1
6569 236 1
6570 234 1
6570 235 1
6570 236 1
6571 234 1
6571 235 1
6571 236 1
6572 234 1
6572 235 1
6572 236 1
6573 234 1
6573 235 1
6573 236 1
6574 171 1
6574 268 1
6574 489 1
6575 456 1
6575 502 1
6575 512 1
6576 268 1
6576 489 1
6576 778 1
6577 776 1
6577 777 1
6577 1569 1
6578 776 1
6578 777 1
6578 1569 1
6579 776 1
6579 894 1
6579 1553 1
6580 670 1
6580 776 1
6580 777 1
6581 234 1
6581 236 1
6581 245 1
6582 234 1
6582 236 1
6582 245 1
6583 234 1
6583 246 1
6583 768 1
6584 234 1
6584 236 1
6584 245 1
6585 234 1
6585 246 1
6585 768 1
6586 1553 1
6586 1618 1
6586 3650 1
6587 1043 1
6587 1101 1
6587 3367 1
6588 236 1
6588 1015 1
6588 1563 1
6589 236 1
6589 1015 1
6589 1563 1
