%%MatrixMarket matrix coordinate integer general
%
39 29 117
1 10 1
1 18 1
1 21 1
2 4 1
2 6 1
2 16 1
3 3 1
3 9 1
3 11 1
4 3 1
4 4 1
4 16 1
5 3 1
5 6 1
5 16 1
6 25 1
6 26 1
6 28 1
7 10 1
7 13 1
7 18 1
8 3 1
8 4 1
8 9 1
9 10 1
9 18 1
9 19 1
10 4 1
10 13 1
10 16 1
11 20 1
11 27 1
11 29 1
12 20 1
12 28 1
12 29 1
13 12 1
13 21 1
13 24 1
14 3 1
14 4 1
14 12 1
15 10 1
15 14 1
15 23 1
16 11 1
16 12 1
16 16 1
17 1 1
17 28 1
17 29 1
18 10 1
18 13 1
18 17 1
19 10 1
19 21 1
19 24 1
20 1 1
20 2 1
20 25 1
21 20 1
21 25 1
21 28 1
22 18 1
22 21 1
22 24 1
23 3 1
23 11 1
23 12 1
24 1 1
24 20 1
24 29 1
25 5 1
25 7 1
25 22 1
26 11 1
26 13 1
26 14 1
27 20 1
27 23 1
27 28 1
28 3 1
28 4 1
28 11 1
29 4 1
29 11 1
29 12 1
30 3 1
30 11 1
30 13 1
31 10 1
31 13 1
31 21 1
32 13 1
32 14 1
32 23 1
33 8 1
33 9 1
33 13 1
34 4 1
34 11 1
34 16 1
35 11 1
35 12 1
35 13 1
36 2 1
36 25 1
36 26 1
37 1 1
37 2 1
37 15 1
38 27 1
38 28 1
38 29 1
39 20 1
39 27 1
39 28 1
